\* Source Pyomo model name=unknown *\

max 
x1:
+2.7270750286731342 x2
+2.7310430736939586 x3
+2.234230119701236 x4
+1.8386855999967904 x5
+2.747249229236328 x6
+2.5493922533830995 x7
+2.062312864292487 x8
+2.0979392244927517 x9
+3.1059349427368326 x10
+2.3817689698715236 x11
+3.132278612100605 x12

s.t.

c_e_x13_:
+1 x2
= 1.0

c_e_x14_:
-1.0 x2
+1 x3
+1 x6
= 0.0

c_e_x15_:
-1.0 x2
+1 x4
+1 x5
= 0.0

c_e_x16_:
-1.0 x2
+1 x7
+1 x8
= 0.0

c_e_x17_:
-1.0 x2
+1 x9
+1 x10
= 0.0

c_e_x18_:
-1.0 x2
+1 x11
+1 x12
= 0.0

bounds
   0 <= x2 <= +inf
   0 <= x3 <= +inf
   0 <= x4 <= +inf
   0 <= x5 <= +inf
   0 <= x6 <= +inf
   0 <= x7 <= +inf
   0 <= x8 <= +inf
   0 <= x9 <= +inf
   0 <= x10 <= +inf
   0 <= x11 <= +inf
   0 <= x12 <= +inf
end
