\* Source Pyomo model name=unknown *\

max 
x1:
-1.0 x2

s.t.

c_u_x3_:
-1 x2
+1.0 x4
+1.0 x5
+1.0 x6
+1.0 x7
+1.0 x8
+1.0 x9
+1.0 x10
+1.0 x11
+1.0 x12
<= 0

c_u_x13_:
-1 x4
+1.0 x14
+1.0 x15
+1.0 x16
+1.0 x17
+1.0 x18
+1.0 x19
+1.0 x20
+1.0 x21
+1.0 x22
+1.0 x23
+1.0 x24
+1.0 x25
+1.0 x26
+1.0 x27
+1.0 x28
+1.0 x29
+1.0 x30
+1.0 x31
+1.0 x32
+1.0 x33
+1.0 x34
+1.0 x35
+1.0 x36
+1.0 x37
-0.019636499999999994 x38
-0.019636499999999994 x39
<= 0

c_u_x40_:
-1 x5
+1.0 x41
+1.0 x42
+1.0 x43
+1.0 x44
+1.0 x45
+1.0 x46
+1.0 x47
+1.0 x48
+1.0 x49
+1.0 x50
+1.0 x51
+1.0 x52
+1.0 x53
+1.0 x54
+1.0 x55
+1.0 x56
-0.0035542064999999996 x57
-0.0035542064999999996 x58
<= 0

c_u_x59_:
-1 x14
-0.0006433113764999997 x60
-0.0006433113764999997 x61
<= 0

c_u_x62_:
-1 x41
-8.041392206249997e-05 x63
-8.041392206249997e-05 x64
<= 0

c_u_x65_:
-1 x41
-8.041392206249997e-05 x63
-8.041392206249997e-05 x64
<= 0

c_u_x66_:
-1 x42
-8.041392206249997e-05 x67
-8.041392206249997e-05 x68
<= 0

c_u_x69_:
-1 x42
-8.041392206249997e-05 x67
-8.041392206249997e-05 x68
<= 0

c_u_x70_:
-1 x14
-0.0006433113764999997 x60
-0.0006433113764999997 x61
<= 0

c_u_x71_:
-1 x43
-8.041392206249997e-05 x72
-8.041392206249997e-05 x73
<= 0

c_u_x74_:
-1 x43
-8.041392206249997e-05 x72
-8.041392206249997e-05 x73
<= 0

c_u_x75_:
-1 x44
-8.041392206249997e-05 x76
-8.041392206249997e-05 x77
<= 0

c_u_x78_:
-1 x44
-8.041392206249997e-05 x76
-8.041392206249997e-05 x77
<= 0

c_u_x79_:
-1 x15
-0.00044427581249999995 x80
-0.00044427581249999995 x81
<= 0

c_u_x82_:
-1 x45
-8.041392206249997e-05 x83
-8.041392206249997e-05 x84
<= 0

c_u_x85_:
-1 x45
-8.041392206249997e-05 x83
-8.041392206249997e-05 x84
<= 0

c_u_x86_:
-1 x46
-8.041392206249997e-05 x87
-8.041392206249997e-05 x88
<= 0

c_u_x89_:
-1 x46
-8.041392206249997e-05 x87
-8.041392206249997e-05 x88
<= 0

c_u_x90_:
-1 x15
-0.00044427581249999995 x80
-0.00044427581249999995 x81
<= 0

c_u_x91_:
-1 x47
-8.041392206249997e-05 x92
-8.041392206249997e-05 x93
<= 0

c_u_x94_:
-1 x47
-8.041392206249997e-05 x92
-8.041392206249997e-05 x93
<= 0

c_u_x95_:
-1 x48
-8.041392206249997e-05 x96
-8.041392206249997e-05 x97
<= 0

c_u_x98_:
-1 x48
-8.041392206249997e-05 x96
-8.041392206249997e-05 x97
<= 0

c_u_x99_:
-1 x16
-0.0006433113764999997 x100
-0.0006433113764999997 x101
<= 0

c_u_x102_:
-1 x49
-8.041392206249997e-05 x103
-8.041392206249997e-05 x104
<= 0

c_u_x105_:
-1 x49
-8.041392206249997e-05 x103
-8.041392206249997e-05 x104
<= 0

c_u_x106_:
-1 x50
-8.041392206249997e-05 x107
-8.041392206249997e-05 x108
<= 0

c_u_x109_:
-1 x50
-8.041392206249997e-05 x107
-8.041392206249997e-05 x108
<= 0

c_u_x110_:
-1 x16
-0.0006433113764999997 x100
-0.0006433113764999997 x101
<= 0

c_u_x111_:
-1 x51
-8.041392206249997e-05 x112
-8.041392206249997e-05 x113
<= 0

c_u_x114_:
-1 x51
-8.041392206249997e-05 x112
-8.041392206249997e-05 x113
<= 0

c_u_x115_:
-1 x52
-8.041392206249997e-05 x116
-8.041392206249997e-05 x117
<= 0

c_u_x118_:
-1 x52
-8.041392206249997e-05 x116
-8.041392206249997e-05 x117
<= 0

c_u_x119_:
-1 x17
-0.00044427581249999995 x120
-0.00044427581249999995 x121
<= 0

c_u_x122_:
-1 x53
-8.041392206249997e-05 x123
-8.041392206249997e-05 x124
<= 0

c_u_x125_:
-1 x53
-8.041392206249997e-05 x123
-8.041392206249997e-05 x124
<= 0

c_u_x126_:
-1 x54
-8.041392206249997e-05 x127
-8.041392206249997e-05 x128
<= 0

c_u_x129_:
-1 x54
-8.041392206249997e-05 x127
-8.041392206249997e-05 x128
<= 0

c_u_x130_:
-1 x17
-0.00044427581249999995 x120
-0.00044427581249999995 x121
<= 0

c_u_x131_:
-1 x55
-8.041392206249997e-05 x132
-8.041392206249997e-05 x133
<= 0

c_u_x134_:
-1 x55
-8.041392206249997e-05 x132
-8.041392206249997e-05 x133
<= 0

c_u_x135_:
-1 x56
-8.041392206249997e-05 x136
-8.041392206249997e-05 x137
<= 0

c_u_x138_:
-1 x56
-8.041392206249997e-05 x136
-8.041392206249997e-05 x137
<= 0

c_u_x139_:
-1 x5
+1.0 x140
+1.0 x141
+1.0 x142
+1.0 x143
+1.0 x144
+1.0 x145
+1.0 x146
+1.0 x147
+1.0 x148
+1.0 x149
+1.0 x150
+1.0 x151
+1.0 x152
+1.0 x153
+1.0 x154
+1.0 x155
-0.0035542064999999996 x57
-0.0035542064999999996 x58
<= 0

c_u_x156_:
-1 x18
-0.0006433113764999997 x157
-0.0006433113764999997 x158
<= 0

c_u_x159_:
-1 x140
-8.041392206249997e-05 x160
-8.041392206249997e-05 x161
<= 0

c_u_x162_:
-1 x140
-8.041392206249997e-05 x160
-8.041392206249997e-05 x161
<= 0

c_u_x163_:
-1 x141
-8.041392206249997e-05 x164
-8.041392206249997e-05 x165
<= 0

c_u_x166_:
-1 x141
-8.041392206249997e-05 x164
-8.041392206249997e-05 x165
<= 0

c_u_x167_:
-1 x18
-0.0006433113764999997 x157
-0.0006433113764999997 x158
<= 0

c_u_x168_:
-1 x142
-8.041392206249997e-05 x169
-8.041392206249997e-05 x170
<= 0

c_u_x171_:
-1 x142
-8.041392206249997e-05 x169
-8.041392206249997e-05 x170
<= 0

c_u_x172_:
-1 x143
-8.041392206249997e-05 x173
-8.041392206249997e-05 x174
<= 0

c_u_x175_:
-1 x143
-8.041392206249997e-05 x173
-8.041392206249997e-05 x174
<= 0

c_u_x176_:
-1 x19
-0.00044427581249999995 x177
-0.00044427581249999995 x178
<= 0

c_u_x179_:
-1 x144
-8.041392206249997e-05 x180
-8.041392206249997e-05 x181
<= 0

c_u_x182_:
-1 x144
-8.041392206249997e-05 x180
-8.041392206249997e-05 x181
<= 0

c_u_x183_:
-1 x145
-8.041392206249997e-05 x184
-8.041392206249997e-05 x185
<= 0

c_u_x186_:
-1 x145
-8.041392206249997e-05 x184
-8.041392206249997e-05 x185
<= 0

c_u_x187_:
-1 x19
-0.00044427581249999995 x177
-0.00044427581249999995 x178
<= 0

c_u_x188_:
-1 x146
-8.041392206249997e-05 x189
-8.041392206249997e-05 x190
<= 0

c_u_x191_:
-1 x146
-8.041392206249997e-05 x189
-8.041392206249997e-05 x190
<= 0

c_u_x192_:
-1 x147
-8.041392206249997e-05 x193
-8.041392206249997e-05 x194
<= 0

c_u_x195_:
-1 x147
-8.041392206249997e-05 x193
-8.041392206249997e-05 x194
<= 0

c_u_x196_:
-1 x20
-0.0006433113764999997 x197
-0.0006433113764999997 x198
<= 0

c_u_x199_:
-1 x148
-8.041392206249997e-05 x200
-8.041392206249997e-05 x201
<= 0

c_u_x202_:
-1 x148
-8.041392206249997e-05 x200
-8.041392206249997e-05 x201
<= 0

c_u_x203_:
-1 x149
-8.041392206249997e-05 x204
-8.041392206249997e-05 x205
<= 0

c_u_x206_:
-1 x149
-8.041392206249997e-05 x204
-8.041392206249997e-05 x205
<= 0

c_u_x207_:
-1 x20
-0.0006433113764999997 x197
-0.0006433113764999997 x198
<= 0

c_u_x208_:
-1 x150
-8.041392206249997e-05 x209
-8.041392206249997e-05 x210
<= 0

c_u_x211_:
-1 x150
-8.041392206249997e-05 x209
-8.041392206249997e-05 x210
<= 0

c_u_x212_:
-1 x151
-8.041392206249997e-05 x213
-8.041392206249997e-05 x214
<= 0

c_u_x215_:
-1 x151
-8.041392206249997e-05 x213
-8.041392206249997e-05 x214
<= 0

c_u_x216_:
-1 x21
-0.00044427581249999995 x217
-0.00044427581249999995 x218
<= 0

c_u_x219_:
-1 x152
-8.041392206249997e-05 x220
-8.041392206249997e-05 x221
<= 0

c_u_x222_:
-1 x152
-8.041392206249997e-05 x220
-8.041392206249997e-05 x221
<= 0

c_u_x223_:
-1 x153
-8.041392206249997e-05 x224
-8.041392206249997e-05 x225
<= 0

c_u_x226_:
-1 x153
-8.041392206249997e-05 x224
-8.041392206249997e-05 x225
<= 0

c_u_x227_:
-1 x21
-0.00044427581249999995 x217
-0.00044427581249999995 x218
<= 0

c_u_x228_:
-1 x154
-8.041392206249997e-05 x229
-8.041392206249997e-05 x230
<= 0

c_u_x231_:
-1 x154
-8.041392206249997e-05 x229
-8.041392206249997e-05 x230
<= 0

c_u_x232_:
-1 x155
-8.041392206249997e-05 x233
-8.041392206249997e-05 x234
<= 0

c_u_x235_:
-1 x155
-8.041392206249997e-05 x233
-8.041392206249997e-05 x234
<= 0

c_u_x236_:
-1 x6
+1.0 x237
+1.0 x238
+1.0 x239
+1.0 x240
+1.0 x241
+1.0 x242
+1.0 x243
+1.0 x244
-0.0024545624999999993 x245
-0.0024545624999999993 x246
<= 0

c_u_x247_:
-1 x22
-0.00044427581249999995 x248
-0.00044427581249999995 x249
<= 0

c_u_x250_:
-1 x237
-8.041392206249997e-05 x251
-8.041392206249997e-05 x252
<= 0

c_u_x253_:
-1 x237
-8.041392206249997e-05 x251
-8.041392206249997e-05 x252
<= 0

c_u_x254_:
-1 x238
-8.041392206249997e-05 x255
-8.041392206249997e-05 x256
<= 0

c_u_x257_:
-1 x238
-8.041392206249997e-05 x255
-8.041392206249997e-05 x256
<= 0

c_u_x258_:
-1 x22
-0.00044427581249999995 x248
-0.00044427581249999995 x249
<= 0

c_u_x259_:
-1 x239
-8.041392206249997e-05 x260
-8.041392206249997e-05 x261
<= 0

c_u_x262_:
-1 x239
-8.041392206249997e-05 x260
-8.041392206249997e-05 x261
<= 0

c_u_x263_:
-1 x240
-8.041392206249997e-05 x264
-8.041392206249997e-05 x265
<= 0

c_u_x266_:
-1 x240
-8.041392206249997e-05 x264
-8.041392206249997e-05 x265
<= 0

c_u_x267_:
-1 x23
-0.00044427581249999995 x268
-0.00044427581249999995 x269
<= 0

c_u_x270_:
-1 x241
-8.041392206249997e-05 x271
-8.041392206249997e-05 x272
<= 0

c_u_x273_:
-1 x241
-8.041392206249997e-05 x271
-8.041392206249997e-05 x272
<= 0

c_u_x274_:
-1 x242
-8.041392206249997e-05 x275
-8.041392206249997e-05 x276
<= 0

c_u_x277_:
-1 x242
-8.041392206249997e-05 x275
-8.041392206249997e-05 x276
<= 0

c_u_x278_:
-1 x23
-0.00044427581249999995 x268
-0.00044427581249999995 x269
<= 0

c_u_x279_:
-1 x243
-8.041392206249997e-05 x280
-8.041392206249997e-05 x281
<= 0

c_u_x282_:
-1 x243
-8.041392206249997e-05 x280
-8.041392206249997e-05 x281
<= 0

c_u_x283_:
-1 x244
-8.041392206249997e-05 x284
-8.041392206249997e-05 x285
<= 0

c_u_x286_:
-1 x244
-8.041392206249997e-05 x284
-8.041392206249997e-05 x285
<= 0

c_u_x287_:
-1 x6
+1.0 x288
+1.0 x289
+1.0 x290
+1.0 x291
+1.0 x292
+1.0 x293
+1.0 x294
+1.0 x295
-0.0024545624999999993 x245
-0.0024545624999999993 x246
<= 0

c_u_x296_:
-1 x24
-0.00044427581249999995 x297
-0.00044427581249999995 x298
<= 0

c_u_x299_:
-1 x288
-8.041392206249997e-05 x300
-8.041392206249997e-05 x301
<= 0

c_u_x302_:
-1 x288
-8.041392206249997e-05 x300
-8.041392206249997e-05 x301
<= 0

c_u_x303_:
-1 x289
-8.041392206249997e-05 x304
-8.041392206249997e-05 x305
<= 0

c_u_x306_:
-1 x289
-8.041392206249997e-05 x304
-8.041392206249997e-05 x305
<= 0

c_u_x307_:
-1 x24
-0.00044427581249999995 x297
-0.00044427581249999995 x298
<= 0

c_u_x308_:
-1 x290
-8.041392206249997e-05 x309
-8.041392206249997e-05 x310
<= 0

c_u_x311_:
-1 x290
-8.041392206249997e-05 x309
-8.041392206249997e-05 x310
<= 0

c_u_x312_:
-1 x291
-8.041392206249997e-05 x313
-8.041392206249997e-05 x314
<= 0

c_u_x315_:
-1 x291
-8.041392206249997e-05 x313
-8.041392206249997e-05 x314
<= 0

c_u_x316_:
-1 x25
-0.00044427581249999995 x317
-0.00044427581249999995 x318
<= 0

c_u_x319_:
-1 x292
-8.041392206249997e-05 x320
-8.041392206249997e-05 x321
<= 0

c_u_x322_:
-1 x292
-8.041392206249997e-05 x320
-8.041392206249997e-05 x321
<= 0

c_u_x323_:
-1 x293
-8.041392206249997e-05 x324
-8.041392206249997e-05 x325
<= 0

c_u_x326_:
-1 x293
-8.041392206249997e-05 x324
-8.041392206249997e-05 x325
<= 0

c_u_x327_:
-1 x25
-0.00044427581249999995 x317
-0.00044427581249999995 x318
<= 0

c_u_x328_:
-1 x294
-8.041392206249997e-05 x329
-8.041392206249997e-05 x330
<= 0

c_u_x331_:
-1 x294
-8.041392206249997e-05 x329
-8.041392206249997e-05 x330
<= 0

c_u_x332_:
-1 x295
-8.041392206249997e-05 x333
-8.041392206249997e-05 x334
<= 0

c_u_x335_:
-1 x295
-8.041392206249997e-05 x333
-8.041392206249997e-05 x334
<= 0

c_u_x336_:
-1 x7
+1.0 x337
+1.0 x338
+1.0 x339
+1.0 x340
+1.0 x341
+1.0 x342
+1.0 x343
+1.0 x344
+1.0 x345
+1.0 x346
+1.0 x347
+1.0 x348
+1.0 x349
+1.0 x350
+1.0 x351
+1.0 x352
-0.0035542064999999996 x353
-0.0035542064999999996 x354
<= 0

c_u_x355_:
-1 x26
-0.0006433113764999997 x356
-0.0006433113764999997 x357
<= 0

c_u_x358_:
-1 x337
-8.041392206249997e-05 x359
-8.041392206249997e-05 x360
<= 0

c_u_x361_:
-1 x337
-8.041392206249997e-05 x359
-8.041392206249997e-05 x360
<= 0

c_u_x362_:
-1 x338
-8.041392206249997e-05 x363
-8.041392206249997e-05 x364
<= 0

c_u_x365_:
-1 x338
-8.041392206249997e-05 x363
-8.041392206249997e-05 x364
<= 0

c_u_x366_:
-1 x26
-0.0006433113764999997 x356
-0.0006433113764999997 x357
<= 0

c_u_x367_:
-1 x339
-8.041392206249997e-05 x368
-8.041392206249997e-05 x369
<= 0

c_u_x370_:
-1 x339
-8.041392206249997e-05 x368
-8.041392206249997e-05 x369
<= 0

c_u_x371_:
-1 x340
-8.041392206249997e-05 x372
-8.041392206249997e-05 x373
<= 0

c_u_x374_:
-1 x340
-8.041392206249997e-05 x372
-8.041392206249997e-05 x373
<= 0

c_u_x375_:
-1 x27
-0.00044427581249999995 x376
-0.00044427581249999995 x377
<= 0

c_u_x378_:
-1 x341
-8.041392206249997e-05 x379
-8.041392206249997e-05 x380
<= 0

c_u_x381_:
-1 x341
-8.041392206249997e-05 x379
-8.041392206249997e-05 x380
<= 0

c_u_x382_:
-1 x342
-8.041392206249997e-05 x383
-8.041392206249997e-05 x384
<= 0

c_u_x385_:
-1 x342
-8.041392206249997e-05 x383
-8.041392206249997e-05 x384
<= 0

c_u_x386_:
-1 x27
-0.00044427581249999995 x376
-0.00044427581249999995 x377
<= 0

c_u_x387_:
-1 x343
-8.041392206249997e-05 x388
-8.041392206249997e-05 x389
<= 0

c_u_x390_:
-1 x343
-8.041392206249997e-05 x388
-8.041392206249997e-05 x389
<= 0

c_u_x391_:
-1 x344
-8.041392206249997e-05 x392
-8.041392206249997e-05 x393
<= 0

c_u_x394_:
-1 x344
-8.041392206249997e-05 x392
-8.041392206249997e-05 x393
<= 0

c_u_x395_:
-1 x28
-0.0006433113764999997 x396
-0.0006433113764999997 x397
<= 0

c_u_x398_:
-1 x345
-8.041392206249997e-05 x399
-8.041392206249997e-05 x400
<= 0

c_u_x401_:
-1 x345
-8.041392206249997e-05 x399
-8.041392206249997e-05 x400
<= 0

c_u_x402_:
-1 x346
-8.041392206249997e-05 x403
-8.041392206249997e-05 x404
<= 0

c_u_x405_:
-1 x346
-8.041392206249997e-05 x403
-8.041392206249997e-05 x404
<= 0

c_u_x406_:
-1 x28
-0.0006433113764999997 x396
-0.0006433113764999997 x397
<= 0

c_u_x407_:
-1 x347
-8.041392206249997e-05 x408
-8.041392206249997e-05 x409
<= 0

c_u_x410_:
-1 x347
-8.041392206249997e-05 x408
-8.041392206249997e-05 x409
<= 0

c_u_x411_:
-1 x348
-8.041392206249997e-05 x412
-8.041392206249997e-05 x413
<= 0

c_u_x414_:
-1 x348
-8.041392206249997e-05 x412
-8.041392206249997e-05 x413
<= 0

c_u_x415_:
-1 x29
-0.00044427581249999995 x416
-0.00044427581249999995 x417
<= 0

c_u_x418_:
-1 x349
-8.041392206249997e-05 x419
-8.041392206249997e-05 x420
<= 0

c_u_x421_:
-1 x349
-8.041392206249997e-05 x419
-8.041392206249997e-05 x420
<= 0

c_u_x422_:
-1 x350
-8.041392206249997e-05 x423
-8.041392206249997e-05 x424
<= 0

c_u_x425_:
-1 x350
-8.041392206249997e-05 x423
-8.041392206249997e-05 x424
<= 0

c_u_x426_:
-1 x29
-0.00044427581249999995 x416
-0.00044427581249999995 x417
<= 0

c_u_x427_:
-1 x351
-8.041392206249997e-05 x428
-8.041392206249997e-05 x429
<= 0

c_u_x430_:
-1 x351
-8.041392206249997e-05 x428
-8.041392206249997e-05 x429
<= 0

c_u_x431_:
-1 x352
-8.041392206249997e-05 x432
-8.041392206249997e-05 x433
<= 0

c_u_x434_:
-1 x352
-8.041392206249997e-05 x432
-8.041392206249997e-05 x433
<= 0

c_u_x435_:
-1 x7
+1.0 x436
+1.0 x437
+1.0 x438
+1.0 x439
+1.0 x440
+1.0 x441
+1.0 x442
+1.0 x443
+1.0 x444
+1.0 x445
+1.0 x446
+1.0 x447
+1.0 x448
+1.0 x449
+1.0 x450
+1.0 x451
-0.0035542064999999996 x353
-0.0035542064999999996 x354
<= 0

c_u_x452_:
-1 x30
-0.0006433113764999997 x453
-0.0006433113764999997 x454
<= 0

c_u_x455_:
-1 x436
-8.041392206249997e-05 x456
-8.041392206249997e-05 x457
<= 0

c_u_x458_:
-1 x436
-8.041392206249997e-05 x456
-8.041392206249997e-05 x457
<= 0

c_u_x459_:
-1 x437
-8.041392206249997e-05 x460
-8.041392206249997e-05 x461
<= 0

c_u_x462_:
-1 x437
-8.041392206249997e-05 x460
-8.041392206249997e-05 x461
<= 0

c_u_x463_:
-1 x30
-0.0006433113764999997 x453
-0.0006433113764999997 x454
<= 0

c_u_x464_:
-1 x438
-8.041392206249997e-05 x465
-8.041392206249997e-05 x466
<= 0

c_u_x467_:
-1 x438
-8.041392206249997e-05 x465
-8.041392206249997e-05 x466
<= 0

c_u_x468_:
-1 x439
-8.041392206249997e-05 x469
-8.041392206249997e-05 x470
<= 0

c_u_x471_:
-1 x439
-8.041392206249997e-05 x469
-8.041392206249997e-05 x470
<= 0

c_u_x472_:
-1 x31
-0.00044427581249999995 x473
-0.00044427581249999995 x474
<= 0

c_u_x475_:
-1 x440
-8.041392206249997e-05 x476
-8.041392206249997e-05 x477
<= 0

c_u_x478_:
-1 x440
-8.041392206249997e-05 x476
-8.041392206249997e-05 x477
<= 0

c_u_x479_:
-1 x441
-8.041392206249997e-05 x480
-8.041392206249997e-05 x481
<= 0

c_u_x482_:
-1 x441
-8.041392206249997e-05 x480
-8.041392206249997e-05 x481
<= 0

c_u_x483_:
-1 x31
-0.00044427581249999995 x473
-0.00044427581249999995 x474
<= 0

c_u_x484_:
-1 x442
-8.041392206249997e-05 x485
-8.041392206249997e-05 x486
<= 0

c_u_x487_:
-1 x442
-8.041392206249997e-05 x485
-8.041392206249997e-05 x486
<= 0

c_u_x488_:
-1 x443
-8.041392206249997e-05 x489
-8.041392206249997e-05 x490
<= 0

c_u_x491_:
-1 x443
-8.041392206249997e-05 x489
-8.041392206249997e-05 x490
<= 0

c_u_x492_:
-1 x32
-0.0006433113764999997 x493
-0.0006433113764999997 x494
<= 0

c_u_x495_:
-1 x444
-8.041392206249997e-05 x496
-8.041392206249997e-05 x497
<= 0

c_u_x498_:
-1 x444
-8.041392206249997e-05 x496
-8.041392206249997e-05 x497
<= 0

c_u_x499_:
-1 x445
-8.041392206249997e-05 x500
-8.041392206249997e-05 x501
<= 0

c_u_x502_:
-1 x445
-8.041392206249997e-05 x500
-8.041392206249997e-05 x501
<= 0

c_u_x503_:
-1 x32
-0.0006433113764999997 x493
-0.0006433113764999997 x494
<= 0

c_u_x504_:
-1 x446
-8.041392206249997e-05 x505
-8.041392206249997e-05 x506
<= 0

c_u_x507_:
-1 x446
-8.041392206249997e-05 x505
-8.041392206249997e-05 x506
<= 0

c_u_x508_:
-1 x447
-8.041392206249997e-05 x509
-8.041392206249997e-05 x510
<= 0

c_u_x511_:
-1 x447
-8.041392206249997e-05 x509
-8.041392206249997e-05 x510
<= 0

c_u_x512_:
-1 x33
-0.00044427581249999995 x513
-0.00044427581249999995 x514
<= 0

c_u_x515_:
-1 x448
-8.041392206249997e-05 x516
-8.041392206249997e-05 x517
<= 0

c_u_x518_:
-1 x448
-8.041392206249997e-05 x516
-8.041392206249997e-05 x517
<= 0

c_u_x519_:
-1 x449
-8.041392206249997e-05 x520
-8.041392206249997e-05 x521
<= 0

c_u_x522_:
-1 x449
-8.041392206249997e-05 x520
-8.041392206249997e-05 x521
<= 0

c_u_x523_:
-1 x33
-0.00044427581249999995 x513
-0.00044427581249999995 x514
<= 0

c_u_x524_:
-1 x450
-8.041392206249997e-05 x525
-8.041392206249997e-05 x526
<= 0

c_u_x527_:
-1 x450
-8.041392206249997e-05 x525
-8.041392206249997e-05 x526
<= 0

c_u_x528_:
-1 x451
-8.041392206249997e-05 x529
-8.041392206249997e-05 x530
<= 0

c_u_x531_:
-1 x451
-8.041392206249997e-05 x529
-8.041392206249997e-05 x530
<= 0

c_u_x532_:
-1 x8
+1.0 x533
+1.0 x534
+1.0 x535
+1.0 x536
+1.0 x537
+1.0 x538
+1.0 x539
+1.0 x540
-0.0024545624999999993 x541
-0.0024545624999999993 x542
<= 0

c_u_x543_:
-1 x34
-0.00044427581249999995 x544
-0.00044427581249999995 x545
<= 0

c_u_x546_:
-1 x533
-8.041392206249997e-05 x547
-8.041392206249997e-05 x548
<= 0

c_u_x549_:
-1 x533
-8.041392206249997e-05 x547
-8.041392206249997e-05 x548
<= 0

c_u_x550_:
-1 x534
-8.041392206249997e-05 x551
-8.041392206249997e-05 x552
<= 0

c_u_x553_:
-1 x534
-8.041392206249997e-05 x551
-8.041392206249997e-05 x552
<= 0

c_u_x554_:
-1 x34
-0.00044427581249999995 x544
-0.00044427581249999995 x545
<= 0

c_u_x555_:
-1 x535
-8.041392206249997e-05 x556
-8.041392206249997e-05 x557
<= 0

c_u_x558_:
-1 x535
-8.041392206249997e-05 x556
-8.041392206249997e-05 x557
<= 0

c_u_x559_:
-1 x536
-8.041392206249997e-05 x560
-8.041392206249997e-05 x561
<= 0

c_u_x562_:
-1 x536
-8.041392206249997e-05 x560
-8.041392206249997e-05 x561
<= 0

c_u_x563_:
-1 x35
-0.00044427581249999995 x564
-0.00044427581249999995 x565
<= 0

c_u_x566_:
-1 x537
-8.041392206249997e-05 x567
-8.041392206249997e-05 x568
<= 0

c_u_x569_:
-1 x537
-8.041392206249997e-05 x567
-8.041392206249997e-05 x568
<= 0

c_u_x570_:
-1 x538
-8.041392206249997e-05 x571
-8.041392206249997e-05 x572
<= 0

c_u_x573_:
-1 x538
-8.041392206249997e-05 x571
-8.041392206249997e-05 x572
<= 0

c_u_x574_:
-1 x35
-0.00044427581249999995 x564
-0.00044427581249999995 x565
<= 0

c_u_x575_:
-1 x539
-8.041392206249997e-05 x576
-8.041392206249997e-05 x577
<= 0

c_u_x578_:
-1 x539
-8.041392206249997e-05 x576
-8.041392206249997e-05 x577
<= 0

c_u_x579_:
-1 x540
-8.041392206249997e-05 x580
-8.041392206249997e-05 x581
<= 0

c_u_x582_:
-1 x540
-8.041392206249997e-05 x580
-8.041392206249997e-05 x581
<= 0

c_u_x583_:
-1 x8
+1.0 x584
+1.0 x585
+1.0 x586
+1.0 x587
+1.0 x588
+1.0 x589
+1.0 x590
+1.0 x591
-0.0024545624999999993 x541
-0.0024545624999999993 x542
<= 0

c_u_x592_:
-1 x36
-0.00044427581249999995 x593
-0.00044427581249999995 x594
<= 0

c_u_x595_:
-1 x584
-8.041392206249997e-05 x596
-8.041392206249997e-05 x597
<= 0

c_u_x598_:
-1 x584
-8.041392206249997e-05 x596
-8.041392206249997e-05 x597
<= 0

c_u_x599_:
-1 x585
-8.041392206249997e-05 x600
-8.041392206249997e-05 x601
<= 0

c_u_x602_:
-1 x585
-8.041392206249997e-05 x600
-8.041392206249997e-05 x601
<= 0

c_u_x603_:
-1 x36
-0.00044427581249999995 x593
-0.00044427581249999995 x594
<= 0

c_u_x604_:
-1 x586
-8.041392206249997e-05 x605
-8.041392206249997e-05 x606
<= 0

c_u_x607_:
-1 x586
-8.041392206249997e-05 x605
-8.041392206249997e-05 x606
<= 0

c_u_x608_:
-1 x587
-8.041392206249997e-05 x609
-8.041392206249997e-05 x610
<= 0

c_u_x611_:
-1 x587
-8.041392206249997e-05 x609
-8.041392206249997e-05 x610
<= 0

c_u_x612_:
-1 x37
-0.00044427581249999995 x613
-0.00044427581249999995 x614
<= 0

c_u_x615_:
-1 x588
-8.041392206249997e-05 x616
-8.041392206249997e-05 x617
<= 0

c_u_x618_:
-1 x588
-8.041392206249997e-05 x616
-8.041392206249997e-05 x617
<= 0

c_u_x619_:
-1 x589
-8.041392206249997e-05 x620
-8.041392206249997e-05 x621
<= 0

c_u_x622_:
-1 x589
-8.041392206249997e-05 x620
-8.041392206249997e-05 x621
<= 0

c_u_x623_:
-1 x37
-0.00044427581249999995 x613
-0.00044427581249999995 x614
<= 0

c_u_x624_:
-1 x590
-8.041392206249997e-05 x625
-8.041392206249997e-05 x626
<= 0

c_u_x627_:
-1 x590
-8.041392206249997e-05 x625
-8.041392206249997e-05 x626
<= 0

c_u_x628_:
-1 x591
-8.041392206249997e-05 x629
-8.041392206249997e-05 x630
<= 0

c_u_x631_:
-1 x591
-8.041392206249997e-05 x629
-8.041392206249997e-05 x630
<= 0

c_u_x632_:
-1 x4
+1.0 x633
+1.0 x634
+1.0 x635
+1.0 x636
+1.0 x637
+1.0 x638
+1.0 x639
+1.0 x640
+1.0 x641
+1.0 x642
+1.0 x643
+1.0 x644
+1.0 x645
+1.0 x646
+1.0 x647
+1.0 x648
+1.0 x649
+1.0 x650
+1.0 x651
+1.0 x652
+1.0 x653
+1.0 x654
+1.0 x655
+1.0 x656
-0.019636499999999994 x38
-0.019636499999999994 x39
<= 0

c_u_x657_:
-1 x9
+1.0 x658
+1.0 x659
+1.0 x660
+1.0 x661
+1.0 x662
+1.0 x663
+1.0 x664
+1.0 x665
+1.0 x666
+1.0 x667
+1.0 x668
+1.0 x669
+1.0 x670
+1.0 x671
+1.0 x672
+1.0 x673
-0.0035542064999999996 x674
-0.0035542064999999996 x675
<= 0

c_u_x676_:
-1 x633
-0.0006433113764999997 x677
-0.0006433113764999997 x678
<= 0

c_u_x679_:
-1 x658
-8.041392206249997e-05 x680
-8.041392206249997e-05 x681
<= 0

c_u_x682_:
-1 x658
-8.041392206249997e-05 x680
-8.041392206249997e-05 x681
<= 0

c_u_x683_:
-1 x659
-8.041392206249997e-05 x684
-8.041392206249997e-05 x685
<= 0

c_u_x686_:
-1 x659
-8.041392206249997e-05 x684
-8.041392206249997e-05 x685
<= 0

c_u_x687_:
-1 x633
-0.0006433113764999997 x677
-0.0006433113764999997 x678
<= 0

c_u_x688_:
-1 x660
-8.041392206249997e-05 x689
-8.041392206249997e-05 x690
<= 0

c_u_x691_:
-1 x660
-8.041392206249997e-05 x689
-8.041392206249997e-05 x690
<= 0

c_u_x692_:
-1 x661
-8.041392206249997e-05 x693
-8.041392206249997e-05 x694
<= 0

c_u_x695_:
-1 x661
-8.041392206249997e-05 x693
-8.041392206249997e-05 x694
<= 0

c_u_x696_:
-1 x634
-0.00044427581249999995 x697
-0.00044427581249999995 x698
<= 0

c_u_x699_:
-1 x662
-8.041392206249997e-05 x700
-8.041392206249997e-05 x701
<= 0

c_u_x702_:
-1 x662
-8.041392206249997e-05 x700
-8.041392206249997e-05 x701
<= 0

c_u_x703_:
-1 x663
-8.041392206249997e-05 x704
-8.041392206249997e-05 x705
<= 0

c_u_x706_:
-1 x663
-8.041392206249997e-05 x704
-8.041392206249997e-05 x705
<= 0

c_u_x707_:
-1 x634
-0.00044427581249999995 x697
-0.00044427581249999995 x698
<= 0

c_u_x708_:
-1 x664
-8.041392206249997e-05 x709
-8.041392206249997e-05 x710
<= 0

c_u_x711_:
-1 x664
-8.041392206249997e-05 x709
-8.041392206249997e-05 x710
<= 0

c_u_x712_:
-1 x665
-8.041392206249997e-05 x713
-8.041392206249997e-05 x714
<= 0

c_u_x715_:
-1 x665
-8.041392206249997e-05 x713
-8.041392206249997e-05 x714
<= 0

c_u_x716_:
-1 x635
-0.0006433113764999997 x717
-0.0006433113764999997 x718
<= 0

c_u_x719_:
-1 x666
-8.041392206249997e-05 x720
-8.041392206249997e-05 x721
<= 0

c_u_x722_:
-1 x666
-8.041392206249997e-05 x720
-8.041392206249997e-05 x721
<= 0

c_u_x723_:
-1 x667
-8.041392206249997e-05 x724
-8.041392206249997e-05 x725
<= 0

c_u_x726_:
-1 x667
-8.041392206249997e-05 x724
-8.041392206249997e-05 x725
<= 0

c_u_x727_:
-1 x635
-0.0006433113764999997 x717
-0.0006433113764999997 x718
<= 0

c_u_x728_:
-1 x668
-8.041392206249997e-05 x729
-8.041392206249997e-05 x730
<= 0

c_u_x731_:
-1 x668
-8.041392206249997e-05 x729
-8.041392206249997e-05 x730
<= 0

c_u_x732_:
-1 x669
-8.041392206249997e-05 x733
-8.041392206249997e-05 x734
<= 0

c_u_x735_:
-1 x669
-8.041392206249997e-05 x733
-8.041392206249997e-05 x734
<= 0

c_u_x736_:
-1 x636
-0.00044427581249999995 x737
-0.00044427581249999995 x738
<= 0

c_u_x739_:
-1 x670
-8.041392206249997e-05 x740
-8.041392206249997e-05 x741
<= 0

c_u_x742_:
-1 x670
-8.041392206249997e-05 x740
-8.041392206249997e-05 x741
<= 0

c_u_x743_:
-1 x671
-8.041392206249997e-05 x744
-8.041392206249997e-05 x745
<= 0

c_u_x746_:
-1 x671
-8.041392206249997e-05 x744
-8.041392206249997e-05 x745
<= 0

c_u_x747_:
-1 x636
-0.00044427581249999995 x737
-0.00044427581249999995 x738
<= 0

c_u_x748_:
-1 x672
-8.041392206249997e-05 x749
-8.041392206249997e-05 x750
<= 0

c_u_x751_:
-1 x672
-8.041392206249997e-05 x749
-8.041392206249997e-05 x750
<= 0

c_u_x752_:
-1 x673
-8.041392206249997e-05 x753
-8.041392206249997e-05 x754
<= 0

c_u_x755_:
-1 x673
-8.041392206249997e-05 x753
-8.041392206249997e-05 x754
<= 0

c_u_x756_:
-1 x9
+1.0 x757
+1.0 x758
+1.0 x759
+1.0 x760
+1.0 x761
+1.0 x762
+1.0 x763
+1.0 x764
+1.0 x765
+1.0 x766
+1.0 x767
+1.0 x768
+1.0 x769
+1.0 x770
+1.0 x771
+1.0 x772
-0.0035542064999999996 x674
-0.0035542064999999996 x675
<= 0

c_u_x773_:
-1 x637
-0.0006433113764999997 x774
-0.0006433113764999997 x775
<= 0

c_u_x776_:
-1 x757
-8.041392206249997e-05 x777
-8.041392206249997e-05 x778
<= 0

c_u_x779_:
-1 x757
-8.041392206249997e-05 x777
-8.041392206249997e-05 x778
<= 0

c_u_x780_:
-1 x758
-8.041392206249997e-05 x781
-8.041392206249997e-05 x782
<= 0

c_u_x783_:
-1 x758
-8.041392206249997e-05 x781
-8.041392206249997e-05 x782
<= 0

c_u_x784_:
-1 x637
-0.0006433113764999997 x774
-0.0006433113764999997 x775
<= 0

c_u_x785_:
-1 x759
-8.041392206249997e-05 x786
-8.041392206249997e-05 x787
<= 0

c_u_x788_:
-1 x759
-8.041392206249997e-05 x786
-8.041392206249997e-05 x787
<= 0

c_u_x789_:
-1 x760
-8.041392206249997e-05 x790
-8.041392206249997e-05 x791
<= 0

c_u_x792_:
-1 x760
-8.041392206249997e-05 x790
-8.041392206249997e-05 x791
<= 0

c_u_x793_:
-1 x638
-0.00044427581249999995 x794
-0.00044427581249999995 x795
<= 0

c_u_x796_:
-1 x761
-8.041392206249997e-05 x797
-8.041392206249997e-05 x798
<= 0

c_u_x799_:
-1 x761
-8.041392206249997e-05 x797
-8.041392206249997e-05 x798
<= 0

c_u_x800_:
-1 x762
-8.041392206249997e-05 x801
-8.041392206249997e-05 x802
<= 0

c_u_x803_:
-1 x762
-8.041392206249997e-05 x801
-8.041392206249997e-05 x802
<= 0

c_u_x804_:
-1 x638
-0.00044427581249999995 x794
-0.00044427581249999995 x795
<= 0

c_u_x805_:
-1 x763
-8.041392206249997e-05 x806
-8.041392206249997e-05 x807
<= 0

c_u_x808_:
-1 x763
-8.041392206249997e-05 x806
-8.041392206249997e-05 x807
<= 0

c_u_x809_:
-1 x764
-8.041392206249997e-05 x810
-8.041392206249997e-05 x811
<= 0

c_u_x812_:
-1 x764
-8.041392206249997e-05 x810
-8.041392206249997e-05 x811
<= 0

c_u_x813_:
-1 x639
-0.0006433113764999997 x814
-0.0006433113764999997 x815
<= 0

c_u_x816_:
-1 x765
-8.041392206249997e-05 x817
-8.041392206249997e-05 x818
<= 0

c_u_x819_:
-1 x765
-8.041392206249997e-05 x817
-8.041392206249997e-05 x818
<= 0

c_u_x820_:
-1 x766
-8.041392206249997e-05 x821
-8.041392206249997e-05 x822
<= 0

c_u_x823_:
-1 x766
-8.041392206249997e-05 x821
-8.041392206249997e-05 x822
<= 0

c_u_x824_:
-1 x639
-0.0006433113764999997 x814
-0.0006433113764999997 x815
<= 0

c_u_x825_:
-1 x767
-8.041392206249997e-05 x826
-8.041392206249997e-05 x827
<= 0

c_u_x828_:
-1 x767
-8.041392206249997e-05 x826
-8.041392206249997e-05 x827
<= 0

c_u_x829_:
-1 x768
-8.041392206249997e-05 x830
-8.041392206249997e-05 x831
<= 0

c_u_x832_:
-1 x768
-8.041392206249997e-05 x830
-8.041392206249997e-05 x831
<= 0

c_u_x833_:
-1 x640
-0.00044427581249999995 x834
-0.00044427581249999995 x835
<= 0

c_u_x836_:
-1 x769
-8.041392206249997e-05 x837
-8.041392206249997e-05 x838
<= 0

c_u_x839_:
-1 x769
-8.041392206249997e-05 x837
-8.041392206249997e-05 x838
<= 0

c_u_x840_:
-1 x770
-8.041392206249997e-05 x841
-8.041392206249997e-05 x842
<= 0

c_u_x843_:
-1 x770
-8.041392206249997e-05 x841
-8.041392206249997e-05 x842
<= 0

c_u_x844_:
-1 x640
-0.00044427581249999995 x834
-0.00044427581249999995 x835
<= 0

c_u_x845_:
-1 x771
-8.041392206249997e-05 x846
-8.041392206249997e-05 x847
<= 0

c_u_x848_:
-1 x771
-8.041392206249997e-05 x846
-8.041392206249997e-05 x847
<= 0

c_u_x849_:
-1 x772
-8.041392206249997e-05 x850
-8.041392206249997e-05 x851
<= 0

c_u_x852_:
-1 x772
-8.041392206249997e-05 x850
-8.041392206249997e-05 x851
<= 0

c_u_x853_:
-1 x10
+1.0 x854
+1.0 x855
+1.0 x856
+1.0 x857
+1.0 x858
+1.0 x859
+1.0 x860
+1.0 x861
-0.0024545624999999993 x862
-0.0024545624999999993 x863
<= 0

c_u_x864_:
-1 x641
-0.00044427581249999995 x865
-0.00044427581249999995 x866
<= 0

c_u_x867_:
-1 x854
-8.041392206249997e-05 x868
-8.041392206249997e-05 x869
<= 0

c_u_x870_:
-1 x854
-8.041392206249997e-05 x868
-8.041392206249997e-05 x869
<= 0

c_u_x871_:
-1 x855
-8.041392206249997e-05 x872
-8.041392206249997e-05 x873
<= 0

c_u_x874_:
-1 x855
-8.041392206249997e-05 x872
-8.041392206249997e-05 x873
<= 0

c_u_x875_:
-1 x641
-0.00044427581249999995 x865
-0.00044427581249999995 x866
<= 0

c_u_x876_:
-1 x856
-8.041392206249997e-05 x877
-8.041392206249997e-05 x878
<= 0

c_u_x879_:
-1 x856
-8.041392206249997e-05 x877
-8.041392206249997e-05 x878
<= 0

c_u_x880_:
-1 x857
-8.041392206249997e-05 x881
-8.041392206249997e-05 x882
<= 0

c_u_x883_:
-1 x857
-8.041392206249997e-05 x881
-8.041392206249997e-05 x882
<= 0

c_u_x884_:
-1 x642
-0.00044427581249999995 x885
-0.00044427581249999995 x886
<= 0

c_u_x887_:
-1 x858
-8.041392206249997e-05 x888
-8.041392206249997e-05 x889
<= 0

c_u_x890_:
-1 x858
-8.041392206249997e-05 x888
-8.041392206249997e-05 x889
<= 0

c_u_x891_:
-1 x859
-8.041392206249997e-05 x892
-8.041392206249997e-05 x893
<= 0

c_u_x894_:
-1 x859
-8.041392206249997e-05 x892
-8.041392206249997e-05 x893
<= 0

c_u_x895_:
-1 x642
-0.00044427581249999995 x885
-0.00044427581249999995 x886
<= 0

c_u_x896_:
-1 x860
-8.041392206249997e-05 x897
-8.041392206249997e-05 x898
<= 0

c_u_x899_:
-1 x860
-8.041392206249997e-05 x897
-8.041392206249997e-05 x898
<= 0

c_u_x900_:
-1 x861
-8.041392206249997e-05 x901
-8.041392206249997e-05 x902
<= 0

c_u_x903_:
-1 x861
-8.041392206249997e-05 x901
-8.041392206249997e-05 x902
<= 0

c_u_x904_:
-1 x10
+1.0 x905
+1.0 x906
+1.0 x907
+1.0 x908
+1.0 x909
+1.0 x910
+1.0 x911
+1.0 x912
-0.0024545624999999993 x862
-0.0024545624999999993 x863
<= 0

c_u_x913_:
-1 x643
-0.00044427581249999995 x914
-0.00044427581249999995 x915
<= 0

c_u_x916_:
-1 x905
-8.041392206249997e-05 x917
-8.041392206249997e-05 x918
<= 0

c_u_x919_:
-1 x905
-8.041392206249997e-05 x917
-8.041392206249997e-05 x918
<= 0

c_u_x920_:
-1 x906
-8.041392206249997e-05 x921
-8.041392206249997e-05 x922
<= 0

c_u_x923_:
-1 x906
-8.041392206249997e-05 x921
-8.041392206249997e-05 x922
<= 0

c_u_x924_:
-1 x643
-0.00044427581249999995 x914
-0.00044427581249999995 x915
<= 0

c_u_x925_:
-1 x907
-8.041392206249997e-05 x926
-8.041392206249997e-05 x927
<= 0

c_u_x928_:
-1 x907
-8.041392206249997e-05 x926
-8.041392206249997e-05 x927
<= 0

c_u_x929_:
-1 x908
-8.041392206249997e-05 x930
-8.041392206249997e-05 x931
<= 0

c_u_x932_:
-1 x908
-8.041392206249997e-05 x930
-8.041392206249997e-05 x931
<= 0

c_u_x933_:
-1 x644
-0.00044427581249999995 x934
-0.00044427581249999995 x935
<= 0

c_u_x936_:
-1 x909
-8.041392206249997e-05 x937
-8.041392206249997e-05 x938
<= 0

c_u_x939_:
-1 x909
-8.041392206249997e-05 x937
-8.041392206249997e-05 x938
<= 0

c_u_x940_:
-1 x910
-8.041392206249997e-05 x941
-8.041392206249997e-05 x942
<= 0

c_u_x943_:
-1 x910
-8.041392206249997e-05 x941
-8.041392206249997e-05 x942
<= 0

c_u_x944_:
-1 x644
-0.00044427581249999995 x934
-0.00044427581249999995 x935
<= 0

c_u_x945_:
-1 x911
-8.041392206249997e-05 x946
-8.041392206249997e-05 x947
<= 0

c_u_x948_:
-1 x911
-8.041392206249997e-05 x946
-8.041392206249997e-05 x947
<= 0

c_u_x949_:
-1 x912
-8.041392206249997e-05 x950
-8.041392206249997e-05 x951
<= 0

c_u_x952_:
-1 x912
-8.041392206249997e-05 x950
-8.041392206249997e-05 x951
<= 0

c_u_x953_:
-1 x11
+1.0 x954
+1.0 x955
+1.0 x956
+1.0 x957
+1.0 x958
+1.0 x959
+1.0 x960
+1.0 x961
+1.0 x962
+1.0 x963
+1.0 x964
+1.0 x965
+1.0 x966
+1.0 x967
+1.0 x968
+1.0 x969
-0.0035542064999999996 x970
-0.0035542064999999996 x971
<= 0

c_u_x972_:
-1 x645
-0.0006433113764999997 x973
-0.0006433113764999997 x974
<= 0

c_u_x975_:
-1 x954
-8.041392206249997e-05 x976
-8.041392206249997e-05 x977
<= 0

c_u_x978_:
-1 x954
-8.041392206249997e-05 x976
-8.041392206249997e-05 x977
<= 0

c_u_x979_:
-1 x955
-8.041392206249997e-05 x980
-8.041392206249997e-05 x981
<= 0

c_u_x982_:
-1 x955
-8.041392206249997e-05 x980
-8.041392206249997e-05 x981
<= 0

c_u_x983_:
-1 x645
-0.0006433113764999997 x973
-0.0006433113764999997 x974
<= 0

c_u_x984_:
-1 x956
-8.041392206249997e-05 x985
-8.041392206249997e-05 x986
<= 0

c_u_x987_:
-1 x956
-8.041392206249997e-05 x985
-8.041392206249997e-05 x986
<= 0

c_u_x988_:
-1 x957
-8.041392206249997e-05 x989
-8.041392206249997e-05 x990
<= 0

c_u_x991_:
-1 x957
-8.041392206249997e-05 x989
-8.041392206249997e-05 x990
<= 0

c_u_x992_:
-1 x646
-0.00044427581249999995 x993
-0.00044427581249999995 x994
<= 0

c_u_x995_:
-1 x958
-8.041392206249997e-05 x996
-8.041392206249997e-05 x997
<= 0

c_u_x998_:
-1 x958
-8.041392206249997e-05 x996
-8.041392206249997e-05 x997
<= 0

c_u_x999_:
-1 x959
-8.041392206249997e-05 x1000
-8.041392206249997e-05 x1001
<= 0

c_u_x1002_:
-1 x959
-8.041392206249997e-05 x1000
-8.041392206249997e-05 x1001
<= 0

c_u_x1003_:
-1 x646
-0.00044427581249999995 x993
-0.00044427581249999995 x994
<= 0

c_u_x1004_:
-1 x960
-8.041392206249997e-05 x1005
-8.041392206249997e-05 x1006
<= 0

c_u_x1007_:
-1 x960
-8.041392206249997e-05 x1005
-8.041392206249997e-05 x1006
<= 0

c_u_x1008_:
-1 x961
-8.041392206249997e-05 x1009
-8.041392206249997e-05 x1010
<= 0

c_u_x1011_:
-1 x961
-8.041392206249997e-05 x1009
-8.041392206249997e-05 x1010
<= 0

c_u_x1012_:
-1 x647
-0.0006433113764999997 x1013
-0.0006433113764999997 x1014
<= 0

c_u_x1015_:
-1 x962
-8.041392206249997e-05 x1016
-8.041392206249997e-05 x1017
<= 0

c_u_x1018_:
-1 x962
-8.041392206249997e-05 x1016
-8.041392206249997e-05 x1017
<= 0

c_u_x1019_:
-1 x963
-8.041392206249997e-05 x1020
-8.041392206249997e-05 x1021
<= 0

c_u_x1022_:
-1 x963
-8.041392206249997e-05 x1020
-8.041392206249997e-05 x1021
<= 0

c_u_x1023_:
-1 x647
-0.0006433113764999997 x1013
-0.0006433113764999997 x1014
<= 0

c_u_x1024_:
-1 x964
-8.041392206249997e-05 x1025
-8.041392206249997e-05 x1026
<= 0

c_u_x1027_:
-1 x964
-8.041392206249997e-05 x1025
-8.041392206249997e-05 x1026
<= 0

c_u_x1028_:
-1 x965
-8.041392206249997e-05 x1029
-8.041392206249997e-05 x1030
<= 0

c_u_x1031_:
-1 x965
-8.041392206249997e-05 x1029
-8.041392206249997e-05 x1030
<= 0

c_u_x1032_:
-1 x648
-0.00044427581249999995 x1033
-0.00044427581249999995 x1034
<= 0

c_u_x1035_:
-1 x966
-8.041392206249997e-05 x1036
-8.041392206249997e-05 x1037
<= 0

c_u_x1038_:
-1 x966
-8.041392206249997e-05 x1036
-8.041392206249997e-05 x1037
<= 0

c_u_x1039_:
-1 x967
-8.041392206249997e-05 x1040
-8.041392206249997e-05 x1041
<= 0

c_u_x1042_:
-1 x967
-8.041392206249997e-05 x1040
-8.041392206249997e-05 x1041
<= 0

c_u_x1043_:
-1 x648
-0.00044427581249999995 x1033
-0.00044427581249999995 x1034
<= 0

c_u_x1044_:
-1 x968
-8.041392206249997e-05 x1045
-8.041392206249997e-05 x1046
<= 0

c_u_x1047_:
-1 x968
-8.041392206249997e-05 x1045
-8.041392206249997e-05 x1046
<= 0

c_u_x1048_:
-1 x969
-8.041392206249997e-05 x1049
-8.041392206249997e-05 x1050
<= 0

c_u_x1051_:
-1 x969
-8.041392206249997e-05 x1049
-8.041392206249997e-05 x1050
<= 0

c_u_x1052_:
-1 x11
+1.0 x1053
+1.0 x1054
+1.0 x1055
+1.0 x1056
+1.0 x1057
+1.0 x1058
+1.0 x1059
+1.0 x1060
+1.0 x1061
+1.0 x1062
+1.0 x1063
+1.0 x1064
+1.0 x1065
+1.0 x1066
+1.0 x1067
+1.0 x1068
-0.0035542064999999996 x970
-0.0035542064999999996 x971
<= 0

c_u_x1069_:
-1 x649
-0.0006433113764999997 x1070
-0.0006433113764999997 x1071
<= 0

c_u_x1072_:
-1 x1053
-8.041392206249997e-05 x1073
-8.041392206249997e-05 x1074
<= 0

c_u_x1075_:
-1 x1053
-8.041392206249997e-05 x1073
-8.041392206249997e-05 x1074
<= 0

c_u_x1076_:
-1 x1054
-8.041392206249997e-05 x1077
-8.041392206249997e-05 x1078
<= 0

c_u_x1079_:
-1 x1054
-8.041392206249997e-05 x1077
-8.041392206249997e-05 x1078
<= 0

c_u_x1080_:
-1 x649
-0.0006433113764999997 x1070
-0.0006433113764999997 x1071
<= 0

c_u_x1081_:
-1 x1055
-8.041392206249997e-05 x1082
-8.041392206249997e-05 x1083
<= 0

c_u_x1084_:
-1 x1055
-8.041392206249997e-05 x1082
-8.041392206249997e-05 x1083
<= 0

c_u_x1085_:
-1 x1056
-8.041392206249997e-05 x1086
-8.041392206249997e-05 x1087
<= 0

c_u_x1088_:
-1 x1056
-8.041392206249997e-05 x1086
-8.041392206249997e-05 x1087
<= 0

c_u_x1089_:
-1 x650
-0.00044427581249999995 x1090
-0.00044427581249999995 x1091
<= 0

c_u_x1092_:
-1 x1057
-8.041392206249997e-05 x1093
-8.041392206249997e-05 x1094
<= 0

c_u_x1095_:
-1 x1057
-8.041392206249997e-05 x1093
-8.041392206249997e-05 x1094
<= 0

c_u_x1096_:
-1 x1058
-8.041392206249997e-05 x1097
-8.041392206249997e-05 x1098
<= 0

c_u_x1099_:
-1 x1058
-8.041392206249997e-05 x1097
-8.041392206249997e-05 x1098
<= 0

c_u_x1100_:
-1 x650
-0.00044427581249999995 x1090
-0.00044427581249999995 x1091
<= 0

c_u_x1101_:
-1 x1059
-8.041392206249997e-05 x1102
-8.041392206249997e-05 x1103
<= 0

c_u_x1104_:
-1 x1059
-8.041392206249997e-05 x1102
-8.041392206249997e-05 x1103
<= 0

c_u_x1105_:
-1 x1060
-8.041392206249997e-05 x1106
-8.041392206249997e-05 x1107
<= 0

c_u_x1108_:
-1 x1060
-8.041392206249997e-05 x1106
-8.041392206249997e-05 x1107
<= 0

c_u_x1109_:
-1 x651
-0.0006433113764999997 x1110
-0.0006433113764999997 x1111
<= 0

c_u_x1112_:
-1 x1061
-8.041392206249997e-05 x1113
-8.041392206249997e-05 x1114
<= 0

c_u_x1115_:
-1 x1061
-8.041392206249997e-05 x1113
-8.041392206249997e-05 x1114
<= 0

c_u_x1116_:
-1 x1062
-8.041392206249997e-05 x1117
-8.041392206249997e-05 x1118
<= 0

c_u_x1119_:
-1 x1062
-8.041392206249997e-05 x1117
-8.041392206249997e-05 x1118
<= 0

c_u_x1120_:
-1 x651
-0.0006433113764999997 x1110
-0.0006433113764999997 x1111
<= 0

c_u_x1121_:
-1 x1063
-8.041392206249997e-05 x1122
-8.041392206249997e-05 x1123
<= 0

c_u_x1124_:
-1 x1063
-8.041392206249997e-05 x1122
-8.041392206249997e-05 x1123
<= 0

c_u_x1125_:
-1 x1064
-8.041392206249997e-05 x1126
-8.041392206249997e-05 x1127
<= 0

c_u_x1128_:
-1 x1064
-8.041392206249997e-05 x1126
-8.041392206249997e-05 x1127
<= 0

c_u_x1129_:
-1 x652
-0.00044427581249999995 x1130
-0.00044427581249999995 x1131
<= 0

c_u_x1132_:
-1 x1065
-8.041392206249997e-05 x1133
-8.041392206249997e-05 x1134
<= 0

c_u_x1135_:
-1 x1065
-8.041392206249997e-05 x1133
-8.041392206249997e-05 x1134
<= 0

c_u_x1136_:
-1 x1066
-8.041392206249997e-05 x1137
-8.041392206249997e-05 x1138
<= 0

c_u_x1139_:
-1 x1066
-8.041392206249997e-05 x1137
-8.041392206249997e-05 x1138
<= 0

c_u_x1140_:
-1 x652
-0.00044427581249999995 x1130
-0.00044427581249999995 x1131
<= 0

c_u_x1141_:
-1 x1067
-8.041392206249997e-05 x1142
-8.041392206249997e-05 x1143
<= 0

c_u_x1144_:
-1 x1067
-8.041392206249997e-05 x1142
-8.041392206249997e-05 x1143
<= 0

c_u_x1145_:
-1 x1068
-8.041392206249997e-05 x1146
-8.041392206249997e-05 x1147
<= 0

c_u_x1148_:
-1 x1068
-8.041392206249997e-05 x1146
-8.041392206249997e-05 x1147
<= 0

c_u_x1149_:
-1 x12
+1.0 x1150
+1.0 x1151
+1.0 x1152
+1.0 x1153
+1.0 x1154
+1.0 x1155
+1.0 x1156
+1.0 x1157
-0.0024545624999999993 x1158
-0.0024545624999999993 x1159
<= 0

c_u_x1160_:
-1 x653
-0.00044427581249999995 x1161
-0.00044427581249999995 x1162
<= 0

c_u_x1163_:
-1 x1150
-8.041392206249997e-05 x1164
-8.041392206249997e-05 x1165
<= 0

c_u_x1166_:
-1 x1150
-8.041392206249997e-05 x1164
-8.041392206249997e-05 x1165
<= 0

c_u_x1167_:
-1 x1151
-8.041392206249997e-05 x1168
-8.041392206249997e-05 x1169
<= 0

c_u_x1170_:
-1 x1151
-8.041392206249997e-05 x1168
-8.041392206249997e-05 x1169
<= 0

c_u_x1171_:
-1 x653
-0.00044427581249999995 x1161
-0.00044427581249999995 x1162
<= 0

c_u_x1172_:
-1 x1152
-8.041392206249997e-05 x1173
-8.041392206249997e-05 x1174
<= 0

c_u_x1175_:
-1 x1152
-8.041392206249997e-05 x1173
-8.041392206249997e-05 x1174
<= 0

c_u_x1176_:
-1 x1153
-8.041392206249997e-05 x1177
-8.041392206249997e-05 x1178
<= 0

c_u_x1179_:
-1 x1153
-8.041392206249997e-05 x1177
-8.041392206249997e-05 x1178
<= 0

c_u_x1180_:
-1 x654
-0.00044427581249999995 x1181
-0.00044427581249999995 x1182
<= 0

c_u_x1183_:
-1 x1154
-8.041392206249997e-05 x1184
-8.041392206249997e-05 x1185
<= 0

c_u_x1186_:
-1 x1154
-8.041392206249997e-05 x1184
-8.041392206249997e-05 x1185
<= 0

c_u_x1187_:
-1 x1155
-8.041392206249997e-05 x1188
-8.041392206249997e-05 x1189
<= 0

c_u_x1190_:
-1 x1155
-8.041392206249997e-05 x1188
-8.041392206249997e-05 x1189
<= 0

c_u_x1191_:
-1 x654
-0.00044427581249999995 x1181
-0.00044427581249999995 x1182
<= 0

c_u_x1192_:
-1 x1156
-8.041392206249997e-05 x1193
-8.041392206249997e-05 x1194
<= 0

c_u_x1195_:
-1 x1156
-8.041392206249997e-05 x1193
-8.041392206249997e-05 x1194
<= 0

c_u_x1196_:
-1 x1157
-8.041392206249997e-05 x1197
-8.041392206249997e-05 x1198
<= 0

c_u_x1199_:
-1 x1157
-8.041392206249997e-05 x1197
-8.041392206249997e-05 x1198
<= 0

c_u_x1200_:
-1 x12
+1.0 x1201
+1.0 x1202
+1.0 x1203
+1.0 x1204
+1.0 x1205
+1.0 x1206
+1.0 x1207
+1.0 x1208
-0.0024545624999999993 x1158
-0.0024545624999999993 x1159
<= 0

c_u_x1209_:
-1 x655
-0.00044427581249999995 x1210
-0.00044427581249999995 x1211
<= 0

c_u_x1212_:
-1 x1201
-8.041392206249997e-05 x1213
-8.041392206249997e-05 x1214
<= 0

c_u_x1215_:
-1 x1201
-8.041392206249997e-05 x1213
-8.041392206249997e-05 x1214
<= 0

c_u_x1216_:
-1 x1202
-8.041392206249997e-05 x1217
-8.041392206249997e-05 x1218
<= 0

c_u_x1219_:
-1 x1202
-8.041392206249997e-05 x1217
-8.041392206249997e-05 x1218
<= 0

c_u_x1220_:
-1 x655
-0.00044427581249999995 x1210
-0.00044427581249999995 x1211
<= 0

c_u_x1221_:
-1 x1203
-8.041392206249997e-05 x1222
-8.041392206249997e-05 x1223
<= 0

c_u_x1224_:
-1 x1203
-8.041392206249997e-05 x1222
-8.041392206249997e-05 x1223
<= 0

c_u_x1225_:
-1 x1204
-8.041392206249997e-05 x1226
-8.041392206249997e-05 x1227
<= 0

c_u_x1228_:
-1 x1204
-8.041392206249997e-05 x1226
-8.041392206249997e-05 x1227
<= 0

c_u_x1229_:
-1 x656
-0.00044427581249999995 x1230
-0.00044427581249999995 x1231
<= 0

c_u_x1232_:
-1 x1205
-8.041392206249997e-05 x1233
-8.041392206249997e-05 x1234
<= 0

c_u_x1235_:
-1 x1205
-8.041392206249997e-05 x1233
-8.041392206249997e-05 x1234
<= 0

c_u_x1236_:
-1 x1206
-8.041392206249997e-05 x1237
-8.041392206249997e-05 x1238
<= 0

c_u_x1239_:
-1 x1206
-8.041392206249997e-05 x1237
-8.041392206249997e-05 x1238
<= 0

c_u_x1240_:
-1 x656
-0.00044427581249999995 x1230
-0.00044427581249999995 x1231
<= 0

c_u_x1241_:
-1 x1207
-8.041392206249997e-05 x1242
-8.041392206249997e-05 x1243
<= 0

c_u_x1244_:
-1 x1207
-8.041392206249997e-05 x1242
-8.041392206249997e-05 x1243
<= 0

c_u_x1245_:
-1 x1208
-8.041392206249997e-05 x1246
-8.041392206249997e-05 x1247
<= 0

c_u_x1248_:
-1 x1208
-8.041392206249997e-05 x1246
-8.041392206249997e-05 x1247
<= 0

c_e_x1249_:
+1 x1250
= 1.0

c_e_x1251_:
-1.0 x1250
+1 x38
+1 x39
= 0.0

c_e_x1252_:
-1.0 x1250
+1 x57
+1 x58
= 0.0

c_e_x1253_:
-1.0 x1250
+1 x245
+1 x246
= 0.0

c_e_x1254_:
-1.0 x38
+1 x60
+1 x61
= 0.0

c_e_x1255_:
-1.0 x38
+1 x80
+1 x81
= 0.0

c_e_x1256_:
-1.0 x57
+1 x63
+1 x64
= 0.0

c_e_x1257_:
-1.0 x57
+1 x67
+1 x68
= 0.0

c_e_x1258_:
-1.0 x57
+1 x72
+1 x73
= 0.0

c_e_x1259_:
-1.0 x57
+1 x76
+1 x77
= 0.0

c_e_x1260_:
-1.0 x57
+1 x83
+1 x84
= 0.0

c_e_x1261_:
-1.0 x57
+1 x87
+1 x88
= 0.0

c_e_x1262_:
-1.0 x57
+1 x92
+1 x93
= 0.0

c_e_x1263_:
-1.0 x57
+1 x96
+1 x97
= 0.0

c_e_x1264_:
-1.0 x38
+1 x100
+1 x101
= 0.0

c_e_x1265_:
-1.0 x38
+1 x120
+1 x121
= 0.0

c_e_x1266_:
-1.0 x58
+1 x103
+1 x104
= 0.0

c_e_x1267_:
-1.0 x58
+1 x107
+1 x108
= 0.0

c_e_x1268_:
-1.0 x58
+1 x112
+1 x113
= 0.0

c_e_x1269_:
-1.0 x58
+1 x116
+1 x117
= 0.0

c_e_x1270_:
-1.0 x58
+1 x123
+1 x124
= 0.0

c_e_x1271_:
-1.0 x58
+1 x127
+1 x128
= 0.0

c_e_x1272_:
-1.0 x58
+1 x132
+1 x133
= 0.0

c_e_x1273_:
-1.0 x58
+1 x136
+1 x137
= 0.0

c_e_x1274_:
-1.0 x38
+1 x157
+1 x158
= 0.0

c_e_x1275_:
-1.0 x38
+1 x177
+1 x178
= 0.0

c_e_x1276_:
-1.0 x57
+1 x160
+1 x161
= 0.0

c_e_x1277_:
-1.0 x57
+1 x164
+1 x165
= 0.0

c_e_x1278_:
-1.0 x57
+1 x169
+1 x170
= 0.0

c_e_x1279_:
-1.0 x57
+1 x173
+1 x174
= 0.0

c_e_x1280_:
-1.0 x57
+1 x180
+1 x181
= 0.0

c_e_x1281_:
-1.0 x57
+1 x184
+1 x185
= 0.0

c_e_x1282_:
-1.0 x57
+1 x189
+1 x190
= 0.0

c_e_x1283_:
-1.0 x57
+1 x193
+1 x194
= 0.0

c_e_x1284_:
-1.0 x38
+1 x197
+1 x198
= 0.0

c_e_x1285_:
-1.0 x38
+1 x217
+1 x218
= 0.0

c_e_x1286_:
-1.0 x58
+1 x200
+1 x201
= 0.0

c_e_x1287_:
-1.0 x58
+1 x204
+1 x205
= 0.0

c_e_x1288_:
-1.0 x58
+1 x209
+1 x210
= 0.0

c_e_x1289_:
-1.0 x58
+1 x213
+1 x214
= 0.0

c_e_x1290_:
-1.0 x58
+1 x220
+1 x221
= 0.0

c_e_x1291_:
-1.0 x58
+1 x224
+1 x225
= 0.0

c_e_x1292_:
-1.0 x58
+1 x229
+1 x230
= 0.0

c_e_x1293_:
-1.0 x58
+1 x233
+1 x234
= 0.0

c_e_x1294_:
-1.0 x38
+1 x248
+1 x249
= 0.0

c_e_x1295_:
-1.0 x245
+1 x251
+1 x252
= 0.0

c_e_x1296_:
-1.0 x245
+1 x255
+1 x256
= 0.0

c_e_x1297_:
-1.0 x245
+1 x260
+1 x261
= 0.0

c_e_x1298_:
-1.0 x245
+1 x264
+1 x265
= 0.0

c_e_x1299_:
-1.0 x38
+1 x268
+1 x269
= 0.0

c_e_x1300_:
-1.0 x246
+1 x271
+1 x272
= 0.0

c_e_x1301_:
-1.0 x246
+1 x275
+1 x276
= 0.0

c_e_x1302_:
-1.0 x246
+1 x280
+1 x281
= 0.0

c_e_x1303_:
-1.0 x246
+1 x284
+1 x285
= 0.0

c_e_x1304_:
-1.0 x38
+1 x297
+1 x298
= 0.0

c_e_x1305_:
-1.0 x245
+1 x300
+1 x301
= 0.0

c_e_x1306_:
-1.0 x245
+1 x304
+1 x305
= 0.0

c_e_x1307_:
-1.0 x245
+1 x309
+1 x310
= 0.0

c_e_x1308_:
-1.0 x245
+1 x313
+1 x314
= 0.0

c_e_x1309_:
-1.0 x38
+1 x317
+1 x318
= 0.0

c_e_x1310_:
-1.0 x246
+1 x320
+1 x321
= 0.0

c_e_x1311_:
-1.0 x246
+1 x324
+1 x325
= 0.0

c_e_x1312_:
-1.0 x246
+1 x329
+1 x330
= 0.0

c_e_x1313_:
-1.0 x246
+1 x333
+1 x334
= 0.0

c_e_x1314_:
-1.0 x1250
+1 x353
+1 x354
= 0.0

c_e_x1315_:
-1.0 x1250
+1 x541
+1 x542
= 0.0

c_e_x1316_:
-1.0 x39
+1 x356
+1 x357
= 0.0

c_e_x1317_:
-1.0 x39
+1 x376
+1 x377
= 0.0

c_e_x1318_:
-1.0 x353
+1 x359
+1 x360
= 0.0

c_e_x1319_:
-1.0 x353
+1 x363
+1 x364
= 0.0

c_e_x1320_:
-1.0 x353
+1 x368
+1 x369
= 0.0

c_e_x1321_:
-1.0 x353
+1 x372
+1 x373
= 0.0

c_e_x1322_:
-1.0 x353
+1 x379
+1 x380
= 0.0

c_e_x1323_:
-1.0 x353
+1 x383
+1 x384
= 0.0

c_e_x1324_:
-1.0 x353
+1 x388
+1 x389
= 0.0

c_e_x1325_:
-1.0 x353
+1 x392
+1 x393
= 0.0

c_e_x1326_:
-1.0 x39
+1 x396
+1 x397
= 0.0

c_e_x1327_:
-1.0 x39
+1 x416
+1 x417
= 0.0

c_e_x1328_:
-1.0 x354
+1 x399
+1 x400
= 0.0

c_e_x1329_:
-1.0 x354
+1 x403
+1 x404
= 0.0

c_e_x1330_:
-1.0 x354
+1 x408
+1 x409
= 0.0

c_e_x1331_:
-1.0 x354
+1 x412
+1 x413
= 0.0

c_e_x1332_:
-1.0 x354
+1 x419
+1 x420
= 0.0

c_e_x1333_:
-1.0 x354
+1 x423
+1 x424
= 0.0

c_e_x1334_:
-1.0 x354
+1 x428
+1 x429
= 0.0

c_e_x1335_:
-1.0 x354
+1 x432
+1 x433
= 0.0

c_e_x1336_:
-1.0 x39
+1 x453
+1 x454
= 0.0

c_e_x1337_:
-1.0 x39
+1 x473
+1 x474
= 0.0

c_e_x1338_:
-1.0 x353
+1 x456
+1 x457
= 0.0

c_e_x1339_:
-1.0 x353
+1 x460
+1 x461
= 0.0

c_e_x1340_:
-1.0 x353
+1 x465
+1 x466
= 0.0

c_e_x1341_:
-1.0 x353
+1 x469
+1 x470
= 0.0

c_e_x1342_:
-1.0 x353
+1 x476
+1 x477
= 0.0

c_e_x1343_:
-1.0 x353
+1 x480
+1 x481
= 0.0

c_e_x1344_:
-1.0 x353
+1 x485
+1 x486
= 0.0

c_e_x1345_:
-1.0 x353
+1 x489
+1 x490
= 0.0

c_e_x1346_:
-1.0 x39
+1 x493
+1 x494
= 0.0

c_e_x1347_:
-1.0 x39
+1 x513
+1 x514
= 0.0

c_e_x1348_:
-1.0 x354
+1 x496
+1 x497
= 0.0

c_e_x1349_:
-1.0 x354
+1 x500
+1 x501
= 0.0

c_e_x1350_:
-1.0 x354
+1 x505
+1 x506
= 0.0

c_e_x1351_:
-1.0 x354
+1 x509
+1 x510
= 0.0

c_e_x1352_:
-1.0 x354
+1 x516
+1 x517
= 0.0

c_e_x1353_:
-1.0 x354
+1 x520
+1 x521
= 0.0

c_e_x1354_:
-1.0 x354
+1 x525
+1 x526
= 0.0

c_e_x1355_:
-1.0 x354
+1 x529
+1 x530
= 0.0

c_e_x1356_:
-1.0 x39
+1 x544
+1 x545
= 0.0

c_e_x1357_:
-1.0 x541
+1 x547
+1 x548
= 0.0

c_e_x1358_:
-1.0 x541
+1 x551
+1 x552
= 0.0

c_e_x1359_:
-1.0 x541
+1 x556
+1 x557
= 0.0

c_e_x1360_:
-1.0 x541
+1 x560
+1 x561
= 0.0

c_e_x1361_:
-1.0 x39
+1 x564
+1 x565
= 0.0

c_e_x1362_:
-1.0 x542
+1 x567
+1 x568
= 0.0

c_e_x1363_:
-1.0 x542
+1 x571
+1 x572
= 0.0

c_e_x1364_:
-1.0 x542
+1 x576
+1 x577
= 0.0

c_e_x1365_:
-1.0 x542
+1 x580
+1 x581
= 0.0

c_e_x1366_:
-1.0 x39
+1 x593
+1 x594
= 0.0

c_e_x1367_:
-1.0 x541
+1 x596
+1 x597
= 0.0

c_e_x1368_:
-1.0 x541
+1 x600
+1 x601
= 0.0

c_e_x1369_:
-1.0 x541
+1 x605
+1 x606
= 0.0

c_e_x1370_:
-1.0 x541
+1 x609
+1 x610
= 0.0

c_e_x1371_:
-1.0 x39
+1 x613
+1 x614
= 0.0

c_e_x1372_:
-1.0 x542
+1 x616
+1 x617
= 0.0

c_e_x1373_:
-1.0 x542
+1 x620
+1 x621
= 0.0

c_e_x1374_:
-1.0 x542
+1 x625
+1 x626
= 0.0

c_e_x1375_:
-1.0 x542
+1 x629
+1 x630
= 0.0

c_e_x1376_:
-1.0 x1250
+1 x674
+1 x675
= 0.0

c_e_x1377_:
-1.0 x1250
+1 x862
+1 x863
= 0.0

c_e_x1378_:
-1.0 x38
+1 x677
+1 x678
= 0.0

c_e_x1379_:
-1.0 x38
+1 x697
+1 x698
= 0.0

c_e_x1380_:
-1.0 x674
+1 x680
+1 x681
= 0.0

c_e_x1381_:
-1.0 x674
+1 x684
+1 x685
= 0.0

c_e_x1382_:
-1.0 x674
+1 x689
+1 x690
= 0.0

c_e_x1383_:
-1.0 x674
+1 x693
+1 x694
= 0.0

c_e_x1384_:
-1.0 x674
+1 x700
+1 x701
= 0.0

c_e_x1385_:
-1.0 x674
+1 x704
+1 x705
= 0.0

c_e_x1386_:
-1.0 x674
+1 x709
+1 x710
= 0.0

c_e_x1387_:
-1.0 x674
+1 x713
+1 x714
= 0.0

c_e_x1388_:
-1.0 x38
+1 x717
+1 x718
= 0.0

c_e_x1389_:
-1.0 x38
+1 x737
+1 x738
= 0.0

c_e_x1390_:
-1.0 x675
+1 x720
+1 x721
= 0.0

c_e_x1391_:
-1.0 x675
+1 x724
+1 x725
= 0.0

c_e_x1392_:
-1.0 x675
+1 x729
+1 x730
= 0.0

c_e_x1393_:
-1.0 x675
+1 x733
+1 x734
= 0.0

c_e_x1394_:
-1.0 x675
+1 x740
+1 x741
= 0.0

c_e_x1395_:
-1.0 x675
+1 x744
+1 x745
= 0.0

c_e_x1396_:
-1.0 x675
+1 x749
+1 x750
= 0.0

c_e_x1397_:
-1.0 x675
+1 x753
+1 x754
= 0.0

c_e_x1398_:
-1.0 x38
+1 x774
+1 x775
= 0.0

c_e_x1399_:
-1.0 x38
+1 x794
+1 x795
= 0.0

c_e_x1400_:
-1.0 x674
+1 x777
+1 x778
= 0.0

c_e_x1401_:
-1.0 x674
+1 x781
+1 x782
= 0.0

c_e_x1402_:
-1.0 x674
+1 x786
+1 x787
= 0.0

c_e_x1403_:
-1.0 x674
+1 x790
+1 x791
= 0.0

c_e_x1404_:
-1.0 x674
+1 x797
+1 x798
= 0.0

c_e_x1405_:
-1.0 x674
+1 x801
+1 x802
= 0.0

c_e_x1406_:
-1.0 x674
+1 x806
+1 x807
= 0.0

c_e_x1407_:
-1.0 x674
+1 x810
+1 x811
= 0.0

c_e_x1408_:
-1.0 x38
+1 x814
+1 x815
= 0.0

c_e_x1409_:
-1.0 x38
+1 x834
+1 x835
= 0.0

c_e_x1410_:
-1.0 x675
+1 x817
+1 x818
= 0.0

c_e_x1411_:
-1.0 x675
+1 x821
+1 x822
= 0.0

c_e_x1412_:
-1.0 x675
+1 x826
+1 x827
= 0.0

c_e_x1413_:
-1.0 x675
+1 x830
+1 x831
= 0.0

c_e_x1414_:
-1.0 x675
+1 x837
+1 x838
= 0.0

c_e_x1415_:
-1.0 x675
+1 x841
+1 x842
= 0.0

c_e_x1416_:
-1.0 x675
+1 x846
+1 x847
= 0.0

c_e_x1417_:
-1.0 x675
+1 x850
+1 x851
= 0.0

c_e_x1418_:
-1.0 x38
+1 x865
+1 x866
= 0.0

c_e_x1419_:
-1.0 x862
+1 x868
+1 x869
= 0.0

c_e_x1420_:
-1.0 x862
+1 x872
+1 x873
= 0.0

c_e_x1421_:
-1.0 x862
+1 x877
+1 x878
= 0.0

c_e_x1422_:
-1.0 x862
+1 x881
+1 x882
= 0.0

c_e_x1423_:
-1.0 x38
+1 x885
+1 x886
= 0.0

c_e_x1424_:
-1.0 x863
+1 x888
+1 x889
= 0.0

c_e_x1425_:
-1.0 x863
+1 x892
+1 x893
= 0.0

c_e_x1426_:
-1.0 x863
+1 x897
+1 x898
= 0.0

c_e_x1427_:
-1.0 x863
+1 x901
+1 x902
= 0.0

c_e_x1428_:
-1.0 x38
+1 x914
+1 x915
= 0.0

c_e_x1429_:
-1.0 x862
+1 x917
+1 x918
= 0.0

c_e_x1430_:
-1.0 x862
+1 x921
+1 x922
= 0.0

c_e_x1431_:
-1.0 x862
+1 x926
+1 x927
= 0.0

c_e_x1432_:
-1.0 x862
+1 x930
+1 x931
= 0.0

c_e_x1433_:
-1.0 x38
+1 x934
+1 x935
= 0.0

c_e_x1434_:
-1.0 x863
+1 x937
+1 x938
= 0.0

c_e_x1435_:
-1.0 x863
+1 x941
+1 x942
= 0.0

c_e_x1436_:
-1.0 x863
+1 x946
+1 x947
= 0.0

c_e_x1437_:
-1.0 x863
+1 x950
+1 x951
= 0.0

c_e_x1438_:
-1.0 x1250
+1 x970
+1 x971
= 0.0

c_e_x1439_:
-1.0 x1250
+1 x1158
+1 x1159
= 0.0

c_e_x1440_:
-1.0 x39
+1 x973
+1 x974
= 0.0

c_e_x1441_:
-1.0 x39
+1 x993
+1 x994
= 0.0

c_e_x1442_:
-1.0 x970
+1 x976
+1 x977
= 0.0

c_e_x1443_:
-1.0 x970
+1 x980
+1 x981
= 0.0

c_e_x1444_:
-1.0 x970
+1 x985
+1 x986
= 0.0

c_e_x1445_:
-1.0 x970
+1 x989
+1 x990
= 0.0

c_e_x1446_:
-1.0 x970
+1 x996
+1 x997
= 0.0

c_e_x1447_:
-1.0 x970
+1 x1000
+1 x1001
= 0.0

c_e_x1448_:
-1.0 x970
+1 x1005
+1 x1006
= 0.0

c_e_x1449_:
-1.0 x970
+1 x1009
+1 x1010
= 0.0

c_e_x1450_:
-1.0 x39
+1 x1013
+1 x1014
= 0.0

c_e_x1451_:
-1.0 x39
+1 x1033
+1 x1034
= 0.0

c_e_x1452_:
-1.0 x971
+1 x1016
+1 x1017
= 0.0

c_e_x1453_:
-1.0 x971
+1 x1020
+1 x1021
= 0.0

c_e_x1454_:
-1.0 x971
+1 x1025
+1 x1026
= 0.0

c_e_x1455_:
-1.0 x971
+1 x1029
+1 x1030
= 0.0

c_e_x1456_:
-1.0 x971
+1 x1036
+1 x1037
= 0.0

c_e_x1457_:
-1.0 x971
+1 x1040
+1 x1041
= 0.0

c_e_x1458_:
-1.0 x971
+1 x1045
+1 x1046
= 0.0

c_e_x1459_:
-1.0 x971
+1 x1049
+1 x1050
= 0.0

c_e_x1460_:
-1.0 x39
+1 x1070
+1 x1071
= 0.0

c_e_x1461_:
-1.0 x39
+1 x1090
+1 x1091
= 0.0

c_e_x1462_:
-1.0 x970
+1 x1073
+1 x1074
= 0.0

c_e_x1463_:
-1.0 x970
+1 x1077
+1 x1078
= 0.0

c_e_x1464_:
-1.0 x970
+1 x1082
+1 x1083
= 0.0

c_e_x1465_:
-1.0 x970
+1 x1086
+1 x1087
= 0.0

c_e_x1466_:
-1.0 x970
+1 x1093
+1 x1094
= 0.0

c_e_x1467_:
-1.0 x970
+1 x1097
+1 x1098
= 0.0

c_e_x1468_:
-1.0 x970
+1 x1102
+1 x1103
= 0.0

c_e_x1469_:
-1.0 x970
+1 x1106
+1 x1107
= 0.0

c_e_x1470_:
-1.0 x39
+1 x1110
+1 x1111
= 0.0

c_e_x1471_:
-1.0 x39
+1 x1130
+1 x1131
= 0.0

c_e_x1472_:
-1.0 x971
+1 x1113
+1 x1114
= 0.0

c_e_x1473_:
-1.0 x971
+1 x1117
+1 x1118
= 0.0

c_e_x1474_:
-1.0 x971
+1 x1122
+1 x1123
= 0.0

c_e_x1475_:
-1.0 x971
+1 x1126
+1 x1127
= 0.0

c_e_x1476_:
-1.0 x971
+1 x1133
+1 x1134
= 0.0

c_e_x1477_:
-1.0 x971
+1 x1137
+1 x1138
= 0.0

c_e_x1478_:
-1.0 x971
+1 x1142
+1 x1143
= 0.0

c_e_x1479_:
-1.0 x971
+1 x1146
+1 x1147
= 0.0

c_e_x1480_:
-1.0 x39
+1 x1161
+1 x1162
= 0.0

c_e_x1481_:
-1.0 x1158
+1 x1164
+1 x1165
= 0.0

c_e_x1482_:
-1.0 x1158
+1 x1168
+1 x1169
= 0.0

c_e_x1483_:
-1.0 x1158
+1 x1173
+1 x1174
= 0.0

c_e_x1484_:
-1.0 x1158
+1 x1177
+1 x1178
= 0.0

c_e_x1485_:
-1.0 x39
+1 x1181
+1 x1182
= 0.0

c_e_x1486_:
-1.0 x1159
+1 x1184
+1 x1185
= 0.0

c_e_x1487_:
-1.0 x1159
+1 x1188
+1 x1189
= 0.0

c_e_x1488_:
-1.0 x1159
+1 x1193
+1 x1194
= 0.0

c_e_x1489_:
-1.0 x1159
+1 x1197
+1 x1198
= 0.0

c_e_x1490_:
-1.0 x39
+1 x1210
+1 x1211
= 0.0

c_e_x1491_:
-1.0 x1158
+1 x1213
+1 x1214
= 0.0

c_e_x1492_:
-1.0 x1158
+1 x1217
+1 x1218
= 0.0

c_e_x1493_:
-1.0 x1158
+1 x1222
+1 x1223
= 0.0

c_e_x1494_:
-1.0 x1158
+1 x1226
+1 x1227
= 0.0

c_e_x1495_:
-1.0 x39
+1 x1230
+1 x1231
= 0.0

c_e_x1496_:
-1.0 x1159
+1 x1233
+1 x1234
= 0.0

c_e_x1497_:
-1.0 x1159
+1 x1237
+1 x1238
= 0.0

c_e_x1498_:
-1.0 x1159
+1 x1242
+1 x1243
= 0.0

c_e_x1499_:
-1.0 x1159
+1 x1246
+1 x1247
= 0.0

bounds
   -inf <= x2 <= +inf
   -inf <= x4 <= +inf
   -inf <= x5 <= +inf
   -inf <= x6 <= +inf
   -inf <= x14 <= +inf
   -inf <= x15 <= +inf
   -inf <= x41 <= +inf
   -inf <= x42 <= +inf
   -inf <= x43 <= +inf
   -inf <= x44 <= +inf
   -inf <= x45 <= +inf
   -inf <= x46 <= +inf
   -inf <= x47 <= +inf
   -inf <= x48 <= +inf
   -inf <= x16 <= +inf
   -inf <= x17 <= +inf
   -inf <= x49 <= +inf
   -inf <= x50 <= +inf
   -inf <= x51 <= +inf
   -inf <= x52 <= +inf
   -inf <= x53 <= +inf
   -inf <= x54 <= +inf
   -inf <= x55 <= +inf
   -inf <= x56 <= +inf
   -inf <= x18 <= +inf
   -inf <= x19 <= +inf
   -inf <= x140 <= +inf
   -inf <= x141 <= +inf
   -inf <= x142 <= +inf
   -inf <= x143 <= +inf
   -inf <= x144 <= +inf
   -inf <= x145 <= +inf
   -inf <= x146 <= +inf
   -inf <= x147 <= +inf
   -inf <= x20 <= +inf
   -inf <= x21 <= +inf
   -inf <= x148 <= +inf
   -inf <= x149 <= +inf
   -inf <= x150 <= +inf
   -inf <= x151 <= +inf
   -inf <= x152 <= +inf
   -inf <= x153 <= +inf
   -inf <= x154 <= +inf
   -inf <= x155 <= +inf
   -inf <= x22 <= +inf
   -inf <= x237 <= +inf
   -inf <= x238 <= +inf
   -inf <= x239 <= +inf
   -inf <= x240 <= +inf
   -inf <= x23 <= +inf
   -inf <= x241 <= +inf
   -inf <= x242 <= +inf
   -inf <= x243 <= +inf
   -inf <= x244 <= +inf
   -inf <= x24 <= +inf
   -inf <= x288 <= +inf
   -inf <= x289 <= +inf
   -inf <= x290 <= +inf
   -inf <= x291 <= +inf
   -inf <= x25 <= +inf
   -inf <= x292 <= +inf
   -inf <= x293 <= +inf
   -inf <= x294 <= +inf
   -inf <= x295 <= +inf
   -inf <= x7 <= +inf
   -inf <= x8 <= +inf
   -inf <= x26 <= +inf
   -inf <= x27 <= +inf
   -inf <= x337 <= +inf
   -inf <= x338 <= +inf
   -inf <= x339 <= +inf
   -inf <= x340 <= +inf
   -inf <= x341 <= +inf
   -inf <= x342 <= +inf
   -inf <= x343 <= +inf
   -inf <= x344 <= +inf
   -inf <= x28 <= +inf
   -inf <= x29 <= +inf
   -inf <= x345 <= +inf
   -inf <= x346 <= +inf
   -inf <= x347 <= +inf
   -inf <= x348 <= +inf
   -inf <= x349 <= +inf
   -inf <= x350 <= +inf
   -inf <= x351 <= +inf
   -inf <= x352 <= +inf
   -inf <= x30 <= +inf
   -inf <= x31 <= +inf
   -inf <= x436 <= +inf
   -inf <= x437 <= +inf
   -inf <= x438 <= +inf
   -inf <= x439 <= +inf
   -inf <= x440 <= +inf
   -inf <= x441 <= +inf
   -inf <= x442 <= +inf
   -inf <= x443 <= +inf
   -inf <= x32 <= +inf
   -inf <= x33 <= +inf
   -inf <= x444 <= +inf
   -inf <= x445 <= +inf
   -inf <= x446 <= +inf
   -inf <= x447 <= +inf
   -inf <= x448 <= +inf
   -inf <= x449 <= +inf
   -inf <= x450 <= +inf
   -inf <= x451 <= +inf
   -inf <= x34 <= +inf
   -inf <= x533 <= +inf
   -inf <= x534 <= +inf
   -inf <= x535 <= +inf
   -inf <= x536 <= +inf
   -inf <= x35 <= +inf
   -inf <= x537 <= +inf
   -inf <= x538 <= +inf
   -inf <= x539 <= +inf
   -inf <= x540 <= +inf
   -inf <= x36 <= +inf
   -inf <= x584 <= +inf
   -inf <= x585 <= +inf
   -inf <= x586 <= +inf
   -inf <= x587 <= +inf
   -inf <= x37 <= +inf
   -inf <= x588 <= +inf
   -inf <= x589 <= +inf
   -inf <= x590 <= +inf
   -inf <= x591 <= +inf
   -inf <= x9 <= +inf
   -inf <= x10 <= +inf
   -inf <= x633 <= +inf
   -inf <= x634 <= +inf
   -inf <= x658 <= +inf
   -inf <= x659 <= +inf
   -inf <= x660 <= +inf
   -inf <= x661 <= +inf
   -inf <= x662 <= +inf
   -inf <= x663 <= +inf
   -inf <= x664 <= +inf
   -inf <= x665 <= +inf
   -inf <= x635 <= +inf
   -inf <= x636 <= +inf
   -inf <= x666 <= +inf
   -inf <= x667 <= +inf
   -inf <= x668 <= +inf
   -inf <= x669 <= +inf
   -inf <= x670 <= +inf
   -inf <= x671 <= +inf
   -inf <= x672 <= +inf
   -inf <= x673 <= +inf
   -inf <= x637 <= +inf
   -inf <= x638 <= +inf
   -inf <= x757 <= +inf
   -inf <= x758 <= +inf
   -inf <= x759 <= +inf
   -inf <= x760 <= +inf
   -inf <= x761 <= +inf
   -inf <= x762 <= +inf
   -inf <= x763 <= +inf
   -inf <= x764 <= +inf
   -inf <= x639 <= +inf
   -inf <= x640 <= +inf
   -inf <= x765 <= +inf
   -inf <= x766 <= +inf
   -inf <= x767 <= +inf
   -inf <= x768 <= +inf
   -inf <= x769 <= +inf
   -inf <= x770 <= +inf
   -inf <= x771 <= +inf
   -inf <= x772 <= +inf
   -inf <= x641 <= +inf
   -inf <= x854 <= +inf
   -inf <= x855 <= +inf
   -inf <= x856 <= +inf
   -inf <= x857 <= +inf
   -inf <= x642 <= +inf
   -inf <= x858 <= +inf
   -inf <= x859 <= +inf
   -inf <= x860 <= +inf
   -inf <= x861 <= +inf
   -inf <= x643 <= +inf
   -inf <= x905 <= +inf
   -inf <= x906 <= +inf
   -inf <= x907 <= +inf
   -inf <= x908 <= +inf
   -inf <= x644 <= +inf
   -inf <= x909 <= +inf
   -inf <= x910 <= +inf
   -inf <= x911 <= +inf
   -inf <= x912 <= +inf
   -inf <= x11 <= +inf
   -inf <= x12 <= +inf
   -inf <= x645 <= +inf
   -inf <= x646 <= +inf
   -inf <= x954 <= +inf
   -inf <= x955 <= +inf
   -inf <= x956 <= +inf
   -inf <= x957 <= +inf
   -inf <= x958 <= +inf
   -inf <= x959 <= +inf
   -inf <= x960 <= +inf
   -inf <= x961 <= +inf
   -inf <= x647 <= +inf
   -inf <= x648 <= +inf
   -inf <= x962 <= +inf
   -inf <= x963 <= +inf
   -inf <= x964 <= +inf
   -inf <= x965 <= +inf
   -inf <= x966 <= +inf
   -inf <= x967 <= +inf
   -inf <= x968 <= +inf
   -inf <= x969 <= +inf
   -inf <= x649 <= +inf
   -inf <= x650 <= +inf
   -inf <= x1053 <= +inf
   -inf <= x1054 <= +inf
   -inf <= x1055 <= +inf
   -inf <= x1056 <= +inf
   -inf <= x1057 <= +inf
   -inf <= x1058 <= +inf
   -inf <= x1059 <= +inf
   -inf <= x1060 <= +inf
   -inf <= x651 <= +inf
   -inf <= x652 <= +inf
   -inf <= x1061 <= +inf
   -inf <= x1062 <= +inf
   -inf <= x1063 <= +inf
   -inf <= x1064 <= +inf
   -inf <= x1065 <= +inf
   -inf <= x1066 <= +inf
   -inf <= x1067 <= +inf
   -inf <= x1068 <= +inf
   -inf <= x653 <= +inf
   -inf <= x1150 <= +inf
   -inf <= x1151 <= +inf
   -inf <= x1152 <= +inf
   -inf <= x1153 <= +inf
   -inf <= x654 <= +inf
   -inf <= x1154 <= +inf
   -inf <= x1155 <= +inf
   -inf <= x1156 <= +inf
   -inf <= x1157 <= +inf
   -inf <= x655 <= +inf
   -inf <= x1201 <= +inf
   -inf <= x1202 <= +inf
   -inf <= x1203 <= +inf
   -inf <= x1204 <= +inf
   -inf <= x656 <= +inf
   -inf <= x1205 <= +inf
   -inf <= x1206 <= +inf
   -inf <= x1207 <= +inf
   -inf <= x1208 <= +inf
   0 <= x1250 <= +inf
   0 <= x38 <= +inf
   0 <= x57 <= +inf
   0 <= x60 <= +inf
   0 <= x63 <= +inf
   0 <= x64 <= +inf
   0 <= x61 <= +inf
   0 <= x67 <= +inf
   0 <= x68 <= +inf
   0 <= x72 <= +inf
   0 <= x73 <= +inf
   0 <= x76 <= +inf
   0 <= x77 <= +inf
   0 <= x80 <= +inf
   0 <= x83 <= +inf
   0 <= x84 <= +inf
   0 <= x81 <= +inf
   0 <= x87 <= +inf
   0 <= x88 <= +inf
   0 <= x92 <= +inf
   0 <= x93 <= +inf
   0 <= x96 <= +inf
   0 <= x97 <= +inf
   0 <= x58 <= +inf
   0 <= x100 <= +inf
   0 <= x103 <= +inf
   0 <= x104 <= +inf
   0 <= x101 <= +inf
   0 <= x107 <= +inf
   0 <= x108 <= +inf
   0 <= x112 <= +inf
   0 <= x113 <= +inf
   0 <= x116 <= +inf
   0 <= x117 <= +inf
   0 <= x120 <= +inf
   0 <= x123 <= +inf
   0 <= x124 <= +inf
   0 <= x121 <= +inf
   0 <= x127 <= +inf
   0 <= x128 <= +inf
   0 <= x132 <= +inf
   0 <= x133 <= +inf
   0 <= x136 <= +inf
   0 <= x137 <= +inf
   0 <= x157 <= +inf
   0 <= x160 <= +inf
   0 <= x161 <= +inf
   0 <= x158 <= +inf
   0 <= x164 <= +inf
   0 <= x165 <= +inf
   0 <= x169 <= +inf
   0 <= x170 <= +inf
   0 <= x173 <= +inf
   0 <= x174 <= +inf
   0 <= x177 <= +inf
   0 <= x180 <= +inf
   0 <= x181 <= +inf
   0 <= x178 <= +inf
   0 <= x184 <= +inf
   0 <= x185 <= +inf
   0 <= x189 <= +inf
   0 <= x190 <= +inf
   0 <= x193 <= +inf
   0 <= x194 <= +inf
   0 <= x197 <= +inf
   0 <= x200 <= +inf
   0 <= x201 <= +inf
   0 <= x198 <= +inf
   0 <= x204 <= +inf
   0 <= x205 <= +inf
   0 <= x209 <= +inf
   0 <= x210 <= +inf
   0 <= x213 <= +inf
   0 <= x214 <= +inf
   0 <= x217 <= +inf
   0 <= x220 <= +inf
   0 <= x221 <= +inf
   0 <= x218 <= +inf
   0 <= x224 <= +inf
   0 <= x225 <= +inf
   0 <= x229 <= +inf
   0 <= x230 <= +inf
   0 <= x233 <= +inf
   0 <= x234 <= +inf
   0 <= x245 <= +inf
   0 <= x248 <= +inf
   0 <= x251 <= +inf
   0 <= x252 <= +inf
   0 <= x249 <= +inf
   0 <= x255 <= +inf
   0 <= x256 <= +inf
   0 <= x260 <= +inf
   0 <= x261 <= +inf
   0 <= x264 <= +inf
   0 <= x265 <= +inf
   0 <= x246 <= +inf
   0 <= x268 <= +inf
   0 <= x271 <= +inf
   0 <= x272 <= +inf
   0 <= x269 <= +inf
   0 <= x275 <= +inf
   0 <= x276 <= +inf
   0 <= x280 <= +inf
   0 <= x281 <= +inf
   0 <= x284 <= +inf
   0 <= x285 <= +inf
   0 <= x297 <= +inf
   0 <= x300 <= +inf
   0 <= x301 <= +inf
   0 <= x298 <= +inf
   0 <= x304 <= +inf
   0 <= x305 <= +inf
   0 <= x309 <= +inf
   0 <= x310 <= +inf
   0 <= x313 <= +inf
   0 <= x314 <= +inf
   0 <= x317 <= +inf
   0 <= x320 <= +inf
   0 <= x321 <= +inf
   0 <= x318 <= +inf
   0 <= x324 <= +inf
   0 <= x325 <= +inf
   0 <= x329 <= +inf
   0 <= x330 <= +inf
   0 <= x333 <= +inf
   0 <= x334 <= +inf
   0 <= x39 <= +inf
   0 <= x353 <= +inf
   0 <= x356 <= +inf
   0 <= x359 <= +inf
   0 <= x360 <= +inf
   0 <= x357 <= +inf
   0 <= x363 <= +inf
   0 <= x364 <= +inf
   0 <= x368 <= +inf
   0 <= x369 <= +inf
   0 <= x372 <= +inf
   0 <= x373 <= +inf
   0 <= x376 <= +inf
   0 <= x379 <= +inf
   0 <= x380 <= +inf
   0 <= x377 <= +inf
   0 <= x383 <= +inf
   0 <= x384 <= +inf
   0 <= x388 <= +inf
   0 <= x389 <= +inf
   0 <= x392 <= +inf
   0 <= x393 <= +inf
   0 <= x354 <= +inf
   0 <= x396 <= +inf
   0 <= x399 <= +inf
   0 <= x400 <= +inf
   0 <= x397 <= +inf
   0 <= x403 <= +inf
   0 <= x404 <= +inf
   0 <= x408 <= +inf
   0 <= x409 <= +inf
   0 <= x412 <= +inf
   0 <= x413 <= +inf
   0 <= x416 <= +inf
   0 <= x419 <= +inf
   0 <= x420 <= +inf
   0 <= x417 <= +inf
   0 <= x423 <= +inf
   0 <= x424 <= +inf
   0 <= x428 <= +inf
   0 <= x429 <= +inf
   0 <= x432 <= +inf
   0 <= x433 <= +inf
   0 <= x453 <= +inf
   0 <= x456 <= +inf
   0 <= x457 <= +inf
   0 <= x454 <= +inf
   0 <= x460 <= +inf
   0 <= x461 <= +inf
   0 <= x465 <= +inf
   0 <= x466 <= +inf
   0 <= x469 <= +inf
   0 <= x470 <= +inf
   0 <= x473 <= +inf
   0 <= x476 <= +inf
   0 <= x477 <= +inf
   0 <= x474 <= +inf
   0 <= x480 <= +inf
   0 <= x481 <= +inf
   0 <= x485 <= +inf
   0 <= x486 <= +inf
   0 <= x489 <= +inf
   0 <= x490 <= +inf
   0 <= x493 <= +inf
   0 <= x496 <= +inf
   0 <= x497 <= +inf
   0 <= x494 <= +inf
   0 <= x500 <= +inf
   0 <= x501 <= +inf
   0 <= x505 <= +inf
   0 <= x506 <= +inf
   0 <= x509 <= +inf
   0 <= x510 <= +inf
   0 <= x513 <= +inf
   0 <= x516 <= +inf
   0 <= x517 <= +inf
   0 <= x514 <= +inf
   0 <= x520 <= +inf
   0 <= x521 <= +inf
   0 <= x525 <= +inf
   0 <= x526 <= +inf
   0 <= x529 <= +inf
   0 <= x530 <= +inf
   0 <= x541 <= +inf
   0 <= x544 <= +inf
   0 <= x547 <= +inf
   0 <= x548 <= +inf
   0 <= x545 <= +inf
   0 <= x551 <= +inf
   0 <= x552 <= +inf
   0 <= x556 <= +inf
   0 <= x557 <= +inf
   0 <= x560 <= +inf
   0 <= x561 <= +inf
   0 <= x542 <= +inf
   0 <= x564 <= +inf
   0 <= x567 <= +inf
   0 <= x568 <= +inf
   0 <= x565 <= +inf
   0 <= x571 <= +inf
   0 <= x572 <= +inf
   0 <= x576 <= +inf
   0 <= x577 <= +inf
   0 <= x580 <= +inf
   0 <= x581 <= +inf
   0 <= x593 <= +inf
   0 <= x596 <= +inf
   0 <= x597 <= +inf
   0 <= x594 <= +inf
   0 <= x600 <= +inf
   0 <= x601 <= +inf
   0 <= x605 <= +inf
   0 <= x606 <= +inf
   0 <= x609 <= +inf
   0 <= x610 <= +inf
   0 <= x613 <= +inf
   0 <= x616 <= +inf
   0 <= x617 <= +inf
   0 <= x614 <= +inf
   0 <= x620 <= +inf
   0 <= x621 <= +inf
   0 <= x625 <= +inf
   0 <= x626 <= +inf
   0 <= x629 <= +inf
   0 <= x630 <= +inf
   0 <= x674 <= +inf
   0 <= x677 <= +inf
   0 <= x680 <= +inf
   0 <= x681 <= +inf
   0 <= x678 <= +inf
   0 <= x684 <= +inf
   0 <= x685 <= +inf
   0 <= x689 <= +inf
   0 <= x690 <= +inf
   0 <= x693 <= +inf
   0 <= x694 <= +inf
   0 <= x697 <= +inf
   0 <= x700 <= +inf
   0 <= x701 <= +inf
   0 <= x698 <= +inf
   0 <= x704 <= +inf
   0 <= x705 <= +inf
   0 <= x709 <= +inf
   0 <= x710 <= +inf
   0 <= x713 <= +inf
   0 <= x714 <= +inf
   0 <= x675 <= +inf
   0 <= x717 <= +inf
   0 <= x720 <= +inf
   0 <= x721 <= +inf
   0 <= x718 <= +inf
   0 <= x724 <= +inf
   0 <= x725 <= +inf
   0 <= x729 <= +inf
   0 <= x730 <= +inf
   0 <= x733 <= +inf
   0 <= x734 <= +inf
   0 <= x737 <= +inf
   0 <= x740 <= +inf
   0 <= x741 <= +inf
   0 <= x738 <= +inf
   0 <= x744 <= +inf
   0 <= x745 <= +inf
   0 <= x749 <= +inf
   0 <= x750 <= +inf
   0 <= x753 <= +inf
   0 <= x754 <= +inf
   0 <= x774 <= +inf
   0 <= x777 <= +inf
   0 <= x778 <= +inf
   0 <= x775 <= +inf
   0 <= x781 <= +inf
   0 <= x782 <= +inf
   0 <= x786 <= +inf
   0 <= x787 <= +inf
   0 <= x790 <= +inf
   0 <= x791 <= +inf
   0 <= x794 <= +inf
   0 <= x797 <= +inf
   0 <= x798 <= +inf
   0 <= x795 <= +inf
   0 <= x801 <= +inf
   0 <= x802 <= +inf
   0 <= x806 <= +inf
   0 <= x807 <= +inf
   0 <= x810 <= +inf
   0 <= x811 <= +inf
   0 <= x814 <= +inf
   0 <= x817 <= +inf
   0 <= x818 <= +inf
   0 <= x815 <= +inf
   0 <= x821 <= +inf
   0 <= x822 <= +inf
   0 <= x826 <= +inf
   0 <= x827 <= +inf
   0 <= x830 <= +inf
   0 <= x831 <= +inf
   0 <= x834 <= +inf
   0 <= x837 <= +inf
   0 <= x838 <= +inf
   0 <= x835 <= +inf
   0 <= x841 <= +inf
   0 <= x842 <= +inf
   0 <= x846 <= +inf
   0 <= x847 <= +inf
   0 <= x850 <= +inf
   0 <= x851 <= +inf
   0 <= x862 <= +inf
   0 <= x865 <= +inf
   0 <= x868 <= +inf
   0 <= x869 <= +inf
   0 <= x866 <= +inf
   0 <= x872 <= +inf
   0 <= x873 <= +inf
   0 <= x877 <= +inf
   0 <= x878 <= +inf
   0 <= x881 <= +inf
   0 <= x882 <= +inf
   0 <= x863 <= +inf
   0 <= x885 <= +inf
   0 <= x888 <= +inf
   0 <= x889 <= +inf
   0 <= x886 <= +inf
   0 <= x892 <= +inf
   0 <= x893 <= +inf
   0 <= x897 <= +inf
   0 <= x898 <= +inf
   0 <= x901 <= +inf
   0 <= x902 <= +inf
   0 <= x914 <= +inf
   0 <= x917 <= +inf
   0 <= x918 <= +inf
   0 <= x915 <= +inf
   0 <= x921 <= +inf
   0 <= x922 <= +inf
   0 <= x926 <= +inf
   0 <= x927 <= +inf
   0 <= x930 <= +inf
   0 <= x931 <= +inf
   0 <= x934 <= +inf
   0 <= x937 <= +inf
   0 <= x938 <= +inf
   0 <= x935 <= +inf
   0 <= x941 <= +inf
   0 <= x942 <= +inf
   0 <= x946 <= +inf
   0 <= x947 <= +inf
   0 <= x950 <= +inf
   0 <= x951 <= +inf
   0 <= x970 <= +inf
   0 <= x973 <= +inf
   0 <= x976 <= +inf
   0 <= x977 <= +inf
   0 <= x974 <= +inf
   0 <= x980 <= +inf
   0 <= x981 <= +inf
   0 <= x985 <= +inf
   0 <= x986 <= +inf
   0 <= x989 <= +inf
   0 <= x990 <= +inf
   0 <= x993 <= +inf
   0 <= x996 <= +inf
   0 <= x997 <= +inf
   0 <= x994 <= +inf
   0 <= x1000 <= +inf
   0 <= x1001 <= +inf
   0 <= x1005 <= +inf
   0 <= x1006 <= +inf
   0 <= x1009 <= +inf
   0 <= x1010 <= +inf
   0 <= x971 <= +inf
   0 <= x1013 <= +inf
   0 <= x1016 <= +inf
   0 <= x1017 <= +inf
   0 <= x1014 <= +inf
   0 <= x1020 <= +inf
   0 <= x1021 <= +inf
   0 <= x1025 <= +inf
   0 <= x1026 <= +inf
   0 <= x1029 <= +inf
   0 <= x1030 <= +inf
   0 <= x1033 <= +inf
   0 <= x1036 <= +inf
   0 <= x1037 <= +inf
   0 <= x1034 <= +inf
   0 <= x1040 <= +inf
   0 <= x1041 <= +inf
   0 <= x1045 <= +inf
   0 <= x1046 <= +inf
   0 <= x1049 <= +inf
   0 <= x1050 <= +inf
   0 <= x1070 <= +inf
   0 <= x1073 <= +inf
   0 <= x1074 <= +inf
   0 <= x1071 <= +inf
   0 <= x1077 <= +inf
   0 <= x1078 <= +inf
   0 <= x1082 <= +inf
   0 <= x1083 <= +inf
   0 <= x1086 <= +inf
   0 <= x1087 <= +inf
   0 <= x1090 <= +inf
   0 <= x1093 <= +inf
   0 <= x1094 <= +inf
   0 <= x1091 <= +inf
   0 <= x1097 <= +inf
   0 <= x1098 <= +inf
   0 <= x1102 <= +inf
   0 <= x1103 <= +inf
   0 <= x1106 <= +inf
   0 <= x1107 <= +inf
   0 <= x1110 <= +inf
   0 <= x1113 <= +inf
   0 <= x1114 <= +inf
   0 <= x1111 <= +inf
   0 <= x1117 <= +inf
   0 <= x1118 <= +inf
   0 <= x1122 <= +inf
   0 <= x1123 <= +inf
   0 <= x1126 <= +inf
   0 <= x1127 <= +inf
   0 <= x1130 <= +inf
   0 <= x1133 <= +inf
   0 <= x1134 <= +inf
   0 <= x1131 <= +inf
   0 <= x1137 <= +inf
   0 <= x1138 <= +inf
   0 <= x1142 <= +inf
   0 <= x1143 <= +inf
   0 <= x1146 <= +inf
   0 <= x1147 <= +inf
   0 <= x1158 <= +inf
   0 <= x1161 <= +inf
   0 <= x1164 <= +inf
   0 <= x1165 <= +inf
   0 <= x1162 <= +inf
   0 <= x1168 <= +inf
   0 <= x1169 <= +inf
   0 <= x1173 <= +inf
   0 <= x1174 <= +inf
   0 <= x1177 <= +inf
   0 <= x1178 <= +inf
   0 <= x1159 <= +inf
   0 <= x1181 <= +inf
   0 <= x1184 <= +inf
   0 <= x1185 <= +inf
   0 <= x1182 <= +inf
   0 <= x1188 <= +inf
   0 <= x1189 <= +inf
   0 <= x1193 <= +inf
   0 <= x1194 <= +inf
   0 <= x1197 <= +inf
   0 <= x1198 <= +inf
   0 <= x1210 <= +inf
   0 <= x1213 <= +inf
   0 <= x1214 <= +inf
   0 <= x1211 <= +inf
   0 <= x1217 <= +inf
   0 <= x1218 <= +inf
   0 <= x1222 <= +inf
   0 <= x1223 <= +inf
   0 <= x1226 <= +inf
   0 <= x1227 <= +inf
   0 <= x1230 <= +inf
   0 <= x1233 <= +inf
   0 <= x1234 <= +inf
   0 <= x1231 <= +inf
   0 <= x1237 <= +inf
   0 <= x1238 <= +inf
   0 <= x1242 <= +inf
   0 <= x1243 <= +inf
   0 <= x1246 <= +inf
   0 <= x1247 <= +inf
end
