\ File written by HiGHS .lp file handler
min
 obj: +1 x12 
st
 con1: +1 x12 -1 x13 -1 x14 -1 x15 -1 x16 -1 x17 >= +0
 con2: +0.009301 x2 +0.009301 x7 +1 x13 >= +0
 con3: +0.001683481 x3 +0.001683481 x4 +1 x14 >= +0
 con4: +0.001683481 x3 +0.001683481 x4 +1 x14 >= +0
 con5: +0.009301 x2 +0.009301 x7 +1 x13 >= +0
 con6: +0.001683481 x5 +0.001683481 x6 +1 x15 >= +0
 con7: +0.001683481 x5 +0.001683481 x6 +1 x15 >= +0
 con8: +0.001683481 x8 +0.001683481 x9 +1 x16 >= +0
 con9: +0.001683481 x8 +0.001683481 x9 +1 x16 >= +0
 con10: +0.001683481 x10 +0.001683481 x11 +1 x17 >= +0
 con11: +0.001683481 x10 +0.001683481 x11 +1 x17 >= +0
 con12: -1 x1 = -1
 con13: +1 x1 -1 x2 -1 x7 = -0
 con14: +1 x1 -1 x3 -1 x4 = -0
 con15: +1 x1 -1 x5 -1 x6 = -0
 con16: +1 x1 -1 x8 -1 x9 = -0
 con17: +1 x1 -1 x10 -1 x11 = -0
bounds
 x12 free
 x13 free
 x14 free
 x15 free
 x16 free
 x17 free
end
