\* Source Pyomo model name=unknown *\

min 
x1:
+1 x2

s.t.

c_l_x3_:
+1 x2
-1.0 x4
>= 0

c_l_x5_:
+1 x4
-1.0 x6
-1.0 x7
+0.009301000000000002 x8
+0.009301000000000002 x9
>= 0

c_l_x10_:
+1 x6
+0.0016834809999999993 x11
+0.0016834809999999993 x12
>= 0

c_l_x13_:
+1 x6
+0.0016834809999999993 x11
+0.0016834809999999993 x12
>= 0

c_l_x14_:
+1 x4
-1.0 x15
-1.0 x16
+0.009301000000000002 x8
+0.009301000000000002 x9
>= 0

c_l_x17_:
+1 x15
+0.0016834809999999993 x18
+0.0016834809999999993 x19
>= 0

c_l_x20_:
+1 x15
+0.0016834809999999993 x18
+0.0016834809999999993 x19
>= 0

c_l_x21_:
+1 x7
+0.0016834809999999993 x22
+0.0016834809999999993 x23
>= 0

c_l_x24_:
+1 x7
+0.0016834809999999993 x22
+0.0016834809999999993 x23
>= 0

c_l_x25_:
+1 x16
+0.0016834809999999993 x26
+0.0016834809999999993 x27
>= 0

c_l_x28_:
+1 x16
+0.0016834809999999993 x26
+0.0016834809999999993 x27
>= 0

c_e_x29_:
-1.0 x30
= -1.0

c_e_x31_:
+1 x30
-1.0 x8
-1.0 x9
= -0.0

c_e_x32_:
+1 x8
-1.0 x11
-1.0 x12
= -0.0

c_e_x33_:
+1 x8
-1.0 x18
-1.0 x19
= -0.0

c_e_x34_:
+1 x9
-1.0 x22
-1.0 x23
= -0.0

c_e_x35_:
+1 x9
-1.0 x26
-1.0 x27
= -0.0

bounds
   -inf <= x2 <= +inf
   -inf <= x4 <= +inf
   -inf <= x6 <= +inf
   -inf <= x15 <= +inf
   -inf <= x7 <= +inf
   -inf <= x16 <= +inf
   0 <= x30 <= +inf
   0 <= x8 <= +inf
   0 <= x11 <= +inf
   0 <= x12 <= +inf
   0 <= x18 <= +inf
   0 <= x19 <= +inf
   0 <= x9 <= +inf
   0 <= x22 <= +inf
   0 <= x23 <= +inf
   0 <= x26 <= +inf
   0 <= x27 <= +inf
end
